# (written by ASE)
clear
variable dump_file string "/n/scratchlfs/kozinsky_lab/xiey/flare/tests/test_mff/lmp_tmp/trj_lammps0000017br3s680"
variable data_file string "/n/scratchlfs/kozinsky_lab/xiey/flare/tests/test_mff/lmp_tmp/data_lammps000001xl3zw6gm"
units metal 
boundary p p p 
atom_modify sort 0 0.0 

read_data /n/scratchlfs/kozinsky_lab/xiey/flare/tests/test_mff/lmp_tmp/data_lammps000001xl3zw6gm

### interactions 
pair_style airebo 3.0 
pair_coeff * * /n/home08/xiey/lammps-16Mar18/potentials/CH.airebo C 
mass * 12.0107 

### run
fix fix_nve all nve
dump dump_all all custom 1 /n/scratchlfs/kozinsky_lab/xiey/flare/tests/test_mff/lmp_tmp/trj_lammps0000017br3s680 id type x y z vx vy vz fx fy fz
thermo_style custom step temp press cpu pxx pyy pzz pxy pxz pyz ke pe etotal vol lx ly lz atoms
thermo_modify flush yes
thermo 1
run 0
print "__end_of_ase_invoked_calculation__" 
log /dev/stdout
