&CONTROL
   calculation      = 'scf'
   tstress          = .true.
   tprnfor          = .true.
   outdir           = './out'
   prefix           = 'AgI'
   pseudo_dir       = '../test_files/pseudos/'
/
&SYSTEM
   ibrav            = 0
   ecutwfc          = 20
   ecutrho          = 40
   nosym            = .true.
   occupations      = 'smearing'
   degauss          = 0.02
   smearing         = 'gauss'
   ntyp             = 2
   nat              = 8
/
&ELECTRONS
   electron_maxstep = 200
   conv_thr         = 1e-05
   mixing_beta      = 0.5
/
&IONS
/
&CELL
/

ATOMIC_SPECIES
Ag 107.8682 Ag.pbe-n-kjpaw_psl.1.0.0.UPF
I 126.90447 I.pbe-n-kjpaw_psl.1.0.0.UPF

K_POINTS gamma

CELL_PARAMETERS angstrom
10.33120000000000 0.00000000000000 0.00000000000000
5.16560000000000 8.94708165157779 0.00000000000000
2.58280000000000 1.49118027526297 4.21769473844026

ATOMIC_POSITIONS angstrom
Ag -0.4730713315 0.2260778143 -0.6051887206 
I 2.6498435977 1.4319097476 1.3059046605 
Ag 2.9635167010 4.6884411336 -0.1343665836 
I 5.0482534658 6.4478853004 1.3611634599 
Ag 4.6942422118 -0.4740605685 -0.3250964180 
I 7.9964749963 0.6433043638 0.9806380005 
Ag 8.1398739128 3.9335940323 -0.2863473047 
I 10.2884175929 6.8660590667 0.8061158866 

