&CONTROL
   calculation      = 'scf'
   tstress          = .true.
   tprnfor          = .true.
   outdir           = './out'
   prefix           = 'AgI'
   pseudo_dir       = '/n/home08/xiey/q-e/pseudo/'
/
&SYSTEM
   ibrav            = 0
   ecutwfc          = 20
   ecutrho          = 40
   nosym            = .true.
   occupations      = 'smearing'
   degauss          = 0.02
   smearing         = 'gauss'
   ntyp             = 2
   nat              = 16
/
&ELECTRONS
   electron_maxstep = 200
   conv_thr         = 1e-05
   mixing_beta      = 0.5
/
&IONS
/
&CELL
/

ATOMIC_SPECIES
Ag 107.8682 Ag.pbe-n-kjpaw_psl.1.0.0.UPF
I 126.90447 I.pbe-n-kjpaw_psl.1.0.0.UPF

K_POINTS gamma

CELL_PARAMETERS angstrom
10.33120000000000 0.00000000000000 0.00000000000000
5.16560000000000 8.94708165157779 0.00000000000000
5.16560000000000 2.98236055052593 8.43538947688052

ATOMIC_POSITIONS angstrom
Ag 0.5654375706 -0.1239824106 -0.4688956939 
I 2.4114128564 2.2807995219 1.7163114275 
Ag 3.0367192545 1.3581813753 4.5394415599 
I 5.7723558502 3.0086276435 4.6458898999 
Ag 2.6664731066 4.2815872678 0.1319219843 
I 5.2368388559 5.2858382690 1.0166555109 
Ag 5.8770812913 5.8913440994 4.6752103104 
I 7.1725864572 8.5981468930 5.4140219583 
Ag 4.9838687495 0.4331492066 0.1840761162 
I 8.2654822374 1.7231976939 1.2359383365 
Ag 7.4840817033 0.9077004180 3.3742245812 
I 9.8315526227 3.1913486201 5.9355684762 
Ag 7.5360349799 4.6007406624 -0.2330384545 
I 10.4356571048 5.2482552849 1.2644383765 
Ag 10.1177393663 5.5770519004 3.9428658328 
I 12.5110820271 7.9834452156 5.5396121744 

