&CONTROL
   calculation      = 'scf'
   tstress          = .true.
   tprnfor          = .true.
   outdir           = './out'
   prefix           = 'AgI'
   pseudo_dir       = '/n/home08/xiey/q-e/pseudo/'
/
&SYSTEM
   ibrav            = 0
   ecutwfc          = 20
   ecutrho          = 40
   nosym            = .true.
   occupations      = 'smearing'
   degauss          = 0.02
   smearing         = 'gauss'
   ntyp             = 2
   nat              = 8
/
&ELECTRONS
   electron_maxstep = 200
   conv_thr         = 1e-05
   mixing_beta      = 0.5
/
&IONS
/
&CELL
/

ATOMIC_SPECIES
Ag 107.8682 Ag.pbe-n-kjpaw_psl.1.0.0.UPF
I 126.90447 I.pbe-n-kjpaw_psl.1.0.0.UPF

K_POINTS gamma

CELL_PARAMETERS angstrom
10.33120000000000 0.00000000000000 0.00000000000000
5.16560000000000 8.94708165157779 0.00000000000000
2.58280000000000 1.49118027526297 4.21769473844026

ATOMIC_POSITIONS angstrom
Ag -0.5345884301 -0.0811150364 -0.2151724448 
I 2.0608270724 1.7829474128 1.5614555697 
Ag 2.4758528772 4.7925409264 0.7459452059 
I 5.5003226316 5.7065157092 0.8066754385 
Ag 4.8106839998 -0.4362010933 -0.2562609937 
I 7.6604923134 1.3090452174 1.1353165281 
Ag 7.7734296359 4.0123235500 0.3655316707 
I 10.4153751073 6.0687670580 1.1223211206 

