&CONTROL
   calculation      = 'scf'
   tstress          = .true.
   tprnfor          = .true.
   outdir           = './out'
   prefix           = 'AgI'
   pseudo_dir       = '/n/home08/xiey/q-e/pseudo/'
/
&SYSTEM
   ibrav            = 0
   ecutwfc          = 20
   ecutrho          = 40
   nosym            = .true.
   occupations      = 'smearing'
   degauss          = 0.02
   smearing         = 'gauss'
   ntyp             = 2
   nat              = 16
/
&ELECTRONS
   electron_maxstep = 200
   conv_thr         = 1e-05
   mixing_beta      = 0.5
/
&IONS
/
&CELL
/

ATOMIC_SPECIES
Ag 107.8682 Ag.pbe-n-kjpaw_psl.1.0.0.UPF
I 126.90447 I.pbe-n-kjpaw_psl.1.0.0.UPF

K_POINTS gamma

CELL_PARAMETERS angstrom
10.33120000000000 0.00000000000000 0.00000000000000
5.16560000000000 8.94708165157779 0.00000000000000
5.16560000000000 2.98236055052593 8.43538947688052

ATOMIC_POSITIONS angstrom
Ag 0.5521679643 0.1923056487 -0.3096016886 
I 2.3045816999 2.0513917048 1.7305292683 
Ag 2.7044605480 1.4213617273 4.7833774393 
I 5.5599513841 3.1908955684 4.7575375088 
Ag 2.7202258464 4.6628897427 0.7317160768 
I 5.6308420819 5.9005359664 1.0315494531 
Ag 5.7551766674 5.7794920773 4.4094977395 
I 7.6527413021 8.3408066183 5.5455063841 
Ag 4.8004672027 -0.1024821219 -0.4944753016 
I 8.4103997539 1.6908831264 1.0133689237 
Ag 7.1656193706 1.1010034561 3.6113690165 
I 9.4454974663 2.6034706102 5.1322929879 
Ag 7.2849530912 4.5869137658 0.0398090884 
I 10.4133808084 5.6006444640 1.3572810530 
Ag 9.6177506549 5.6581003237 3.9843225909 
I 12.3940482479 7.2640259892 5.7110228590 

