 &control
    calculation = 'scf'
    pseudo_dir = '/n/home03/jonpvandermause/qe-6.2.1/pseudo'
    outdir = './output'
    tstress = .true.
    tprnfor = .true.
 /
 &system
    ibrav= 0
    nat= 64
    ntyp= 1
    ecutwfc =100
    ecutrho = 400
 /
 &electrons
    conv_thr =  1.0d-10
    mixing_beta = 0.7
 /
ATOMIC_SPECIES
 C  12  C.pz-rrkjus.UPF
CELL_PARAMETERS {angstrom}
 7.05356 0.00000 0.00000
 0.00000 7.05356 0.00000
 0.00000 0.00000 7.05356
ATOMIC_POSITIONS {angstrom}
 C 0.07866 0.07837 0.19602
 C 1.62687 1.85032 0.07957
 C 0.09319 1.89651 1.69618
 C 2.05420 0.00603 1.89906
 C 1.07148 0.93756 1.06229
 C 2.56618 2.49774 1.03683
 C 1.04358 2.52821 2.60709
 C 2.69184 0.72813 2.81076
 C 0.03601 -0.00721 3.40281
 C 1.70508 1.61490 3.50417
 C -0.04763 1.79214 5.21697
 C 1.65973 -0.02197 5.32484
 C 0.95464 0.74566 4.46652
 C 2.55657 2.46285 4.53089
 C 0.77801 2.49206 6.15132
 C 2.74063 0.87985 6.29646
 C -0.17325 3.67239 -0.13240
 C 1.76803 5.16584 0.12203
 C 0.06522 5.49946 1.67185
 C 1.73404 3.47944 1.83059
 C 0.89327 4.27284 0.82200
 C 2.83096 5.96205 0.92210
 C 0.98134 6.27491 2.73217
 C 2.78818 4.38010 2.61934
 C -0.11984 3.64608 3.59110
 C 1.92769 5.07319 3.45098
 C -0.13555 5.38408 5.19957
 C 1.64601 3.55476 5.39438
 C 0.77737 4.36691 4.39195
 C 2.71547 6.20579 4.50968
 C 0.74719 6.24171 6.46919
 C 2.70802 4.22834 6.06201
 C 3.54336 0.03069 0.06130
 C 5.32770 1.84765 0.01590
 C 3.51853 1.69988 1.75121
 C 5.34013 -0.07749 1.75674
 C 4.48928 0.97384 0.80758
 C 6.08714 2.66739 0.73081
 C 4.34887 2.67371 2.82306
 C 6.20461 0.93404 2.38448
 C 3.52657 0.07454 3.64300
 C 5.27787 1.74620 3.25133
 C 3.64166 1.82073 5.29644
 C 5.29997 -0.00806 5.20489
 C 4.36060 0.81523 4.51968
 C 6.12461 2.68575 4.20824
 C 4.59550 2.62534 6.13117
 C 6.19725 0.91695 6.36311
 C 3.54412 3.60150 -0.10876
 C 5.02413 5.28323 -0.02781
 C 3.57919 5.32904 1.79549
 C 5.29612 3.41131 1.80295
 C 4.32221 4.33954 0.86485
 C 6.23456 6.20137 1.05218
 C 4.27853 6.27796 2.65509
 C 6.33260 4.50900 2.68721
 C 3.55338 3.44437 3.57276
 C 5.09362 5.34715 3.39617
 C 3.51538 5.37559 5.14850
 C 5.25306 3.63834 5.13063
 C 4.23695 4.52399 4.24799
 C 6.14264 6.17087 4.19876
 C 4.32221 6.27424 6.12563
 C 6.12429 4.45689 6.07093
K_POINTS automatic
 5 5 5  0 0 0
