 &control
    calculation = 'md'
    pseudo_dir = '/n/home03/jonpvandermause/qe-6.2.1/pseudo'
    outdir = './output'
    tstress = .true.
    tprnfor = .true.
    dt = 20
    nstep = 100000
 /
 &system
    ibrav= 0
    nat= 37
    ntyp= 1
    ecutwfc =29
    ecutrho = 143
    occupations = 'smearing'
    smearing = 'mp'
    degauss = 0.01
    nosym = .true.
 /
 &electrons
    conv_thr =  1.0d-10
    mixing_beta = 0.7
    electron_maxstep = 100
 /
 &ions
    pot_extrapolation = 'second-order'
    wfc_extrapolation = 'second-order'
    ion_temperature = 'initial'
    tempw = 300
 /
ATOMIC_SPECIES
 Al  27  Al.pbe-n-kjpaw_psl.1.0.0.UPF
CELL_PARAMETERS {angstrom}
 8.58286 0.00000 0.00000
 4.29143 7.43298 0.00000
 0.00000 0.00000 17.00788
ATOMIC_POSITIONS {angstrom}
 Al 0.00000 0.00000 5.00000
 Al 2.86095 0.00000 5.00000
 Al 5.72191 0.00000 5.00000
 Al 1.43048 2.47766 5.00000
 Al 4.29143 2.47766 5.00000
 Al 7.15239 2.47766 5.00000
 Al 2.86095 4.95532 5.00000
 Al 5.72191 4.95532 5.00000
 Al 8.58286 4.95532 5.00000
 Al 1.43048 0.82589 7.33596
 Al 4.29143 0.82589 7.33596
 Al 7.15239 0.82589 7.33596
 Al 2.86095 3.30355 7.33596
 Al 5.72191 3.30355 7.33596
 Al 8.58286 3.30355 7.33596
 Al 4.29143 5.78120 7.33596
 Al 7.15239 5.78120 7.33596
 Al 10.01334 5.78120 7.33596
 Al -0.00000 1.65177 9.67192
 Al 2.86095 1.65177 9.67192
 Al 5.72191 1.65177 9.67192
 Al 1.43048 4.12943 9.67192
 Al 4.29143 4.12943 9.67192
 Al 7.15239 4.12943 9.67192
 Al 2.86095 6.60709 9.67192
 Al 5.72191 6.60709 9.67192
 Al 8.58286 6.60709 9.67192
 Al 0.00000 0.00000 12.00788
 Al 2.86095 0.00000 12.00788
 Al 5.72191 0.00000 12.00788
 Al 1.43048 2.47766 12.00788
 Al 4.29143 2.47766 12.00788
 Al 7.15239 2.47766 12.00788
 Al 2.86095 4.95532 12.00788
 Al 5.72191 4.95532 12.00788
 Al 8.58286 4.95532 12.00788
 Al 2.86095 1.65177 14.03088
K_POINTS automatic
 4 4 2  0 0 0
