 &CONTROL

    prefix = 'Al'
    calculation = 'scf'
    pseudo_dir = '/Users/simonbatzner1/Sci_Software/QE/qe-6.0/pseudo'
    outdir = '.'
    tstress = .true.
    tprnfor = .true.
    disk_io = 'medium'
    wf_collect = .false.
 /
 &SYSTEM
    ibrav= 0
    nat = 31
    ntyp= 1
    ecutwfc =5
    nosym = .true.
    occupations = 'smearing'
    smearing = 'mp'
    degauss = 0.02
 /
 &ELECTRONS
    diagonalization = 'david'
    mixing_beta = 0.5
    conv_thr = 1e-07
 /
 &IONS
 /
ATOMIC_SPECIES
   Al  26.981539  Al.pz-vbc.UPF
CELL_PARAMETERS {angstrom}
7.95631 0.0 0.0
0.0 7.95631 0.0
0.0 0.0 7.95631

ATOMIC_POSITIONS {angstrom}
Al 0.0 0.0 0.0
Al 0.0 1.98908 1.98908
Al 1.98908 0.0 1.98908
Al 1.98908 1.98908 0.0
Al 0.0 0.0 3.97815
Al 0.0 1.98908 5.96723
Al 1.98908 0.0 5.96723
Al 1.98908 1.98908 3.97815
Al 0.0 3.97815 0.0
Al 0.0 5.96723 1.98908
Al 1.98908 3.97815 1.98908
Al 1.98908 5.96723 0.0
Al 0.0 3.97815 3.97815
Al 0.0 5.96723 5.96723
Al 1.98908 3.97815 5.96723
Al 1.98908 5.96723 3.97815
Al 3.97815 1.98908 1.98908
Al 5.96723 0.0 1.98908
Al 5.96723 1.98908 0.0
Al 3.97815 0.0 3.97815
Al 3.97815 1.98908 5.96723
Al 5.96723 0.0 5.96723
Al 5.96723 1.98908 3.97815
Al 3.97815 3.97815 0.0
Al 3.97815 5.96723 1.98908
Al 5.96723 3.97815 1.98908
Al 5.96723 5.96723 0.0
Al 3.97815 3.97815 3.97815
Al 3.97815 5.96723 5.96723
Al 5.96723 3.97815 5.96723
Al 5.96723 5.96723 3.97815
K_POINTS automatic
 1 1 1  0 0 0
