units		metal
atom_style	atomic

variable L equal 1
lattice		diamond 5.431
region		box block 0 $L 0 $L 0 $L
create_box	1 box
create_atoms	1 box

newton on
pair_style	flare
pair_coeff	* * Si.txt
mass            1 28.06

velocity	all create 1000.0 376847 loop geom

neighbor	1.0 bin
neigh_modify    delay 5 every 1

fix		1 all nve

timestep	0.001

displace_atoms all random 0.2 0.2 0.2 654321

compute peatom all pe/atom
compute stressatom all stress/atom NULL virial

dump 1 all custom 10 si.dump id type x y z fx fy fz c_peatom c_stressatom[*]
dump_modify 1 sort id

thermo 1
thermo_style custom step temp pe etotal press pxx pyy pzz pxy pxz pyz

run		10
