&CONTROL
    prefix = 'Al'
    calculation = 'scf'
    pseudo_dir = './test_files/pseudos'
    outdir = '.'
    tstress = .true.
    tprnfor = .true.
    disk_io = 'low'
    wf_collect = .false.
/ 
&SYSTEM
    ecutwfc = 10
    ecutrho = 80
    occupations = 'smearing'
    smearing = 'mp'
    degauss = 0.02
    ntyp = 1
    nat = 4
    ibrav = 0
/ 
&ELECTRONS
    diagonalization = 'david'
    mixing_beta = 0.5
    conv_thr = 1e-07
/ 
&IONS
/ 
&CELL
/ 
K_POINTS {automatic}
 2 2 2  0 0 0
ATOMIC_SPECIES
  Al 26.9815385 Al.pz-vbc.UPF
CELL_PARAMETERS {angstrom}
 3.9 0.0 0.0
 0.0 3.9 0.0
 0.0 0.0 3.9
ATOMIC_POSITIONS {angstrom}
  Al 0.2000 0.00000 0.10000
  Al 0.00000 1.90000 1.8000
  Al 1.7000 0.00000 1.8000
  Al 1.9000 1.7000 0.00000

