&CONTROL
    prefix = 'Al'
    calculation = 'scf'
    pseudo_dir = './test_files/pseudos'
    outdir = '.'
    tstress = .true.
    tprnfor = .true.
    disk_io = 'low'
    wf_collect = .false.
/ 
&SYSTEM
    ecutwfc = 10
    ecutrho = 80
    occupations = 'smearing'
    smearing = 'mp'
    degauss = 0.02
    ntyp = 1
nat = 4
    ibrav = 0
/ 
&ELECTRONS
    diagonalization = 'david'
    mixing_beta = 0.5
    conv_thr = 1e-07
/ 
&IONS
/ 
&CELL
/ 
K_POINTS {automatic}
 2 2 2  0 0 0
ATOMIC_SPECIES
  Al 26.9815385 Al.pz-vbc.UPF
CELL_PARAMETERS {angstrom}
3.9 0.0 0.0
0.0 3.9 0.0
0.0 0.0 3.9
ATOMIC_POSITIONS {angstrom}
Al -0.009633112297297939 0.0007024021249940832 -0.0016139992527199588
Al 0.15262256334224172 1.7096363872046911 1.8113886233139287
Al 1.9109729598639726 0.0038892355305986523 1.79679621754512
Al 1.7460375831206507 1.8857719688252057 0.09342917707343514

