&CONTROL
	pseudo_dir = './test_files/pseudos'
	outdir = '.'
	calculation = 'scf'
	disk_io = 'low'
	tprnfor = .true.
	wf_collect = .false.
/ 
&SYSTEM
	ecutwfc = 50
	ecutrho = 100
	ntyp = 1
nat = 2
	ibrav = 0
/ 
&ELECTRONS
	diagonalization = 'david'
	mixing_beta = 0.5
	conv_thr = 1e-07
/ 
&IONS
/ 
&CELL
/
ATOMIC_SPECIES
  H 1.0 H.pbe-kjpaw.UPF
CELL_PARAMETERS {angstrom}
6.222887684575656 -0.2229615903227085 0.380670175839734
0.0 5.0 0.0
0.0 0.0 5.0
ATOMIC_POSITIONS {angstrom}
H 3.488144951197148 2.3560459114463352 2.1211854930486513
H 2.8 2.5 2.5
K_POINTS {gamma}
