 &control
    calculation = 'vc-relax'
    pseudo_dir = '/Users/jonpvandermause/AP275/qe-6.0/pseudo'
    outdir = './output'
    tstress = .true.
    tprnfor = .true.
 /
 &system
    ibrav= 0
    nat= 2
    ntyp= 1
    ecutwfc =50.0
 /
 &electrons
    conv_thr =  1.0d-10
    mixing_beta = 0.7
 /
 &ions
 /
 &cell
    press_conv_thr = 0.5D0
 /
ATOMIC_SPECIES
 C  12.011  C.pz-rrkjus.UPF
CELL_PARAMETERS {angstrom}
 0.00000 1.76000 1.76000
 1.76000 0.00000 1.76000
 1.76000 1.76000 0.00000
ATOMIC_POSITIONS {angstrom}
 C 0.00000 0.00000 0.00000
 C 0.88000 0.88000 0.88000
K_POINTS automatic
 20 20 20  0 0 0
