 &control
    calculation = 'relax'
    pseudo_dir = '/Users/jonpvandermause/AP275/qe-6.0/pseudo'
    outdir = './output'
    tprnfor = .true.
 /
 &system
    ibrav= 0
    nat= 2
    ntyp= 1
    ecutwfc =18.0
    nosym = .true.
 /
 &electrons
    conv_thr =  1.0d-10
    mixing_beta = 0.7
 /
 &ions
 /
ATOMIC_SPECIES
 H  1.008  H.pbe-kjpaw.UPF
CELL_PARAMETERS {angstrom}
 10.00000 0.00000 0.00000
 0.00000 10.00000 0.00000
 0.00000 0.00000 10.00000
ATOMIC_POSITIONS {angstrom}
 H 0.00000 0.00000 0.00000
 H 0.00000 0.00000 0.70000
K_POINTS automatic
 1 1 1  0 0 0
