 &CONTROL
    calculation = 'scf'
    pseudo_dir = '/home/homesoftware/espresso-6.1/qe-6.1/pseudo/'
    outdir = '.'
    tstress = .true.
    tprnfor = .true.
    disk_io = 'low'
    wf_collect = .false.
 /
 &SYSTEM
    ibrav= 0
    nat = 31
    ntyp= 1
    ecutwfc = 40
    ecutrho = 200
    occupations = 'smearing'
    smearing = 'mp'
    degauss = 0.02
 /
 &ELECTRONS
    diagonalization = 'david'
    conv_thr =  1.0d-7
    mixing_beta = 0.5
 /
ATOMIC_SPECIES
 Al  26.981539  Al.pz-vbc.UPF
CELL_PARAMETERS {angstrom}
7.95631 0.0 0.0
0.0 7.95631 0.0
0.0 0.0 7.95631
ATOMIC_POSITIONS {angstrom}
Al       0.121052982  -0.030124915   0.093419157
Al       0.107272304   1.891527168   1.647338964
Al       2.340503466   0.110898964   1.902159735
Al       2.236053078   1.884011897  -0.017419333
Al      -0.012214312   0.088713704   4.040331517
Al      -0.035584533   2.055064475   5.688070626
Al       2.184386065   0.097189144   5.902186427
Al       2.218782319   1.960735072   3.871398149
Al      -0.013441066   3.778020343  -0.085524547
Al       0.160314813   5.991347097   1.915983219
Al       1.636261966   4.037880713   1.765778168
Al       2.350698376   6.225632198  -0.105136626
Al       0.071169380   4.048837663   3.959492828
Al       0.114565400   6.039953588   6.072726454
Al       1.985547592   4.056444382   6.081412463
Al       2.043463543   5.864078770   3.953884337
Al       3.915893606   2.126759583   1.944777628
Al       6.105735096   0.003274809   1.969491222
Al       5.799818386   1.721690417  -0.098075985
Al       3.995840454   0.057397977   3.926430639
Al       4.153519779   2.007195104   5.938998273
Al       6.073366699  -0.005049635   6.227729902
Al       6.074267361   2.060614346   3.733275128
Al       3.953603628   4.265404826   0.176399655
Al       4.229176012   6.111180426   1.863878927
Al       6.104547813   4.060526313   1.929803027
Al       6.264824169   5.961717643  -0.041043116
Al       3.800254018   3.999801336   3.767380748
Al       4.016785236   6.069591440   5.860708817
Al       6.093600595   3.914342343   6.009911942
Al       6.078315773   6.412532805   4.064321657
K_POINTS automatic
 7 7 7 0 0 0
