&CONTROL

    prefix = 'Al'
    calculation = 'md'
    restart_mode = 'from_scratch'
    pseudo_dir = '/home/homesoftware/espresso-6.1/qe-6.1/pseudo/'
    outdir = '.'
    tstress = .true.
    tprnfor = .true.
    disk_io = 'low'
    wf_collect = .false.
    forc_conv_thr = 0.01D-3
    etot_conv_thr = 1D-6
    nstep = 1000
    dt = 20.6705527306
 /

&SYSTEM
    ibrav= 0
    nat = 31
    ntyp= 1
    ecutwfc = 40
    ecutrho = 160
    nosym = .true.
    occupations = 'smearing'
    smearing = 'mp'
    degauss = 0.02
 /
&ELECTRONS
    diagonalization = 'david'
    mixing_beta = 0.5
    conv_thr = 1e-07
 /
&IONS
  ion_dynamics       =  'verlet'
  wfc_extrapolation  =  'second_order'
  pot_extrapolation  =  'second_order'
  tempw              =  800
  delta_t            =  1
  ion_temperature    =  'rescale-v'
  nraise             =  5
/

ATOMIC_SPECIES
 Al  26.981539  Al.pz-vbc.UPF
CELL_PARAMETERS {angstrom}
 7.95631 0.00000 0.00000
 0.00000 7.95631 0.00000
 0.00000 0.00000 7.95631
ATOMIC_POSITIONS {angstrom}

 Al 0.38130 0.35871 -0.33297
 Al 0.25437 1.89296 1.97021
 Al 2.06628 -0.28136 1.59303
 Al 2.37483 2.24034 -0.09049
 Al 0.13652 0.26826 3.94496
 Al -0.10258 1.59193 5.79465
 Al 2.20214 0.28962 5.87965
 Al 2.32069 2.13013 3.88368
 Al -0.36268 3.85458 0.07086
 Al -0.39716 6.24531 2.19534
 Al 2.12773 3.67661 2.33624
 Al 2.35466 6.00806 -0.36531
 Al -0.37379 4.34078 3.75162
 Al 0.17887 6.23528 5.63055
 Al 1.90900 4.25923 5.85328
 Al 2.15165 5.76281 3.80542
 Al 3.90096 2.01745 1.79452
 Al 6.22960 0.13561 2.29197
 Al 6.06392 2.23706 0.19163
 Al 3.86822 -0.13713 4.23253
 Al 3.89995 1.90061 6.01619
 Al 6.17074 0.29589 6.22232
 Al 5.91725 2.14164 4.19335
 Al 4.24919 4.36964 -0.37881
 Al 4.21588 5.96269 1.69004
 Al 6.31160 4.15269 1.93204
 Al 6.16232 5.85486 0.06285
 Al 3.89296 4.02732 4.21971
 Al 4.04009 5.72350 5.65004
 Al 5.96983 3.71115 5.88885
 Al 6.05404 5.60096 4.03214

K_POINTS automatic
 4 4 4  0 0 0
