&CONTROL
    prefix = 'Al'
    calculation = 'md'
    restart_mode = 'from_scratch'
    pseudo_dir = '/home/homesoftware/espresso-6.1/qe-6.1/pseudo/'
    outdir = '.'
    tstress = .true.
    tprnfor = .true.
    disk_io = 'low'
    wf_collect = .false.
    forc_conv_thr = 0.01D-3
    etot_conv_thr = 1D-6
    nstep = 1000
    dt = 20.6705527306
 /
 &SYSTEM
    ibrav= 0
    nat = 31
    ntyp= 1
    ecutwfc = 40
    ecutrho = 160
    nosym = .true.
    occupations = 'smearing'
    smearing = 'mp'
    degauss = 0.02
 /
 &ELECTRONS
    diagonalization = 'david'
    mixing_beta = 0.5
    conv_thr = 1e-07
 /
 &IONS
  ion_dynamics       =  'verlet'
  wfc_extrapolation  =  'second_order'
  pot_extrapolation  =  'second_order'
  tempw              =  800
  delta_t            =  1
  ion_temperature    =  'rescale-v'
  nraise             =  5
/
ATOMIC_SPECIES
 Al  26.981539  Al.pbe-rrkj.UPF

CELL_PARAMETERS {angstrom}
 7.95631 0.00000 0.00000
 0.00000 7.95631 0.00000
 0.00000 0.00000 7.95631
ATOMIC_POSITIONS {angstrom}
 Al 0.28832 -0.19958 -0.35821
 Al -0.38907 1.96582 2.33039
 Al 2.02505 0.19059 1.87598
 Al 1.80833 1.71478 -0.03199
 Al 0.37199 -0.31632 3.60723
 Al 0.36007 2.38320 5.61412
 Al 2.30059 -0.39615 6.33145
 Al 1.68922 2.23684 4.10193
 Al -0.16904 4.22288 0.34807
 Al 0.17299 5.81538 2.23148
 Al 2.05434 4.26275 1.61958
 Al 2.34747 6.02095 0.13197
 Al -0.07989 4.37496 4.25332
 Al 0.28679 5.71280 5.90642
 Al 2.04602 4.07993 5.58186
 Al 1.70857 6.04587 3.73853
 Al 3.79907 2.28259 2.24502
 Al 6.26528 0.24331 2.16556
 Al 5.71330 1.67678 0.33946
 Al 4.00350 -0.07629 3.73033
 Al 3.76743 2.20377 6.28767
 Al 6.17788 -0.36937 6.10146
 Al 5.95879 1.64889 4.26059
 Al 4.28429 3.92763 -0.30281
 Al 3.64215 5.87333 2.15182
 Al 5.86753 3.76014 2.35508
 Al 6.09499 5.73317 0.19160
 Al 4.25669 3.91959 3.66823
 Al 3.58846 5.64035 6.35951
 Al 5.99006 3.89038 5.65432
 Al 5.82967 5.65870 4.35620
K_POINTS automatic
 7 7 7  0 0 0
