&CONTROL
    prefix = 'Al'
    calculation = 'relax'
    pseudo_dir = '/home/homesoftware/espresso-6.1/qe-6.1/pseudo/'
    outdir = '.'
    tstress = .true.
    tprnfor = .true.
    disk_io = 'medium'
    wf_collect = .false.
 /
&SYSTEM
    ibrav= 0
    nat = 31
    ntyp= 1
    ecutwfc = 30
    nosym = .true.
    occupations = 'smearing'
    smearing = 'mp'
    degauss = 0.02
 /
&ELECTRONS
    diagonalization = 'david'
    mixing_beta = 0.5
    conv_thr = 1e-07
 /
&IONS
 /
ATOMIC_SPECIES
 Al  26.981539  Al.pz-vbc.UPF
CELL_PARAMETERS {angstrom}
 7.95631 0.00000 0.00000
 0.00000 7.95631 0.00000
 0.00000 0.00000 7.95631
ATOMIC_POSITIONS {angstrom}
 Al -0.17573 -0.12067 0.08194
 Al -0.00870 1.99424 1.80839
 Al 2.18969 0.16645 2.02740
 Al 2.26539 2.01311 0.05185
 Al 0.00677 -0.06763 3.82319
 Al -0.09800 1.97199 6.14369
 Al 2.26658 -0.07637 6.08347
 Al 2.03854 2.05476 4.12728
 Al -0.04441 3.94969 -0.07226
 Al -0.00204 6.15746 2.16801
 Al 1.81694 3.87251 1.89190
 Al 2.22126 6.19472 -0.18564
 Al -0.00709 4.15993 3.99730
 Al -0.10508 5.95179 6.06339
 Al 1.92286 3.99482 6.07555
 Al 2.10590 6.08581 3.82269
 Al 3.88740 1.97504 2.05762
 Al 5.85367 0.02842 1.93506
 Al 5.76630 1.93085 -0.03919
 Al 3.78433 0.08433 3.95980
 Al 4.14113 1.72003 6.21809
 Al 5.80134 -0.17434 6.14433
 Al 5.98696 2.11213 3.80877
 Al 3.96902 4.15255 -0.19450
 Al 4.16230 6.02160 1.98556
 Al 5.96215 4.13023 1.97570
 Al 5.91125 6.17710 0.08053
 Al 3.88521 3.83452 3.84048
 Al 3.93564 5.94587 6.08981
 Al 6.04934 3.83646 6.09624
 Al 5.90885 5.78062 3.81373
K_POINTS automatic
 4 4 4  0 0 0
