&CONTROL
    calculation = 'scf'
    pseudo_dir = '/home/homesoftware/espresso-6.1/qe-6.1/pseudo/'
    outdir = '.'
    tstress = .true.
    tprnfor = .true.
    disk_io = 'medium'
    wf_collect = .false.
 /
&SYSTEM
    ibrav= 0
nat = 31
    ntyp= 1
    ecutwfc = 30
    nosym = .true.
    occupations = 'smearing'
    smearing = 'mp'
    degauss = 0.02
 /
&ELECTRONS
    diagonalization = 'david'
    mixing_beta = 0.5
    conv_thr = 1e-07
/
&IONS
/
ATOMIC_SPECIES
   Al  26.981539  Al.pz-vbc.UPF

CELL_PARAMETERS {angstrom}
7.95631 0.0 0.0
0.0 7.95631 0.0
0.0 0.0 7.95631

ATOMIC_POSITIONS {angstrom}
Al 0.05581 0.18775 -0.02645
Al 0.14058 2.16124 1.97379
Al 1.99489 0.12353 1.85424
Al 1.95112 1.90296 0.19463
Al 0.01827 0.10581 3.78331
Al 0.05036 2.025 6.03755
Al 2.11447 -0.12205 6.05421
Al 1.82487 1.80596 4.09421
Al 0.02827 4.15632 -0.02929
Al 0.03103 5.96763 2.01764
Al 1.85113 4.171 1.96146
Al 2.05485 5.88371 -0.09961
Al 0.01535 4.16944 3.93662
Al 0.1159 5.92341 6.02951
Al 1.96437 3.81236 5.78971
Al 2.06801 6.00411 4.04398
Al 3.88895 2.10809 1.88019
Al 6.06355 -0.13373 2.00835
Al 5.82922 1.91192 -0.13154
Al 4.11613 -0.06754 3.87985
Al 3.99511 1.86213 5.80271
Al 6.09253 0.02042 5.99251
Al 6.07978 2.09353 4.10604
Al 3.83272 3.85623 -0.12205
Al 4.02783 5.8392 2.09469
Al 5.83185 3.99665 2.11014
Al 5.80954 5.92677 0.00632
Al 3.8483 3.90984 3.8188
Al 3.83577 6.0746 5.96158
Al 5.77965 3.90343 5.81891
Al 5.94981 6.1143 3.95807

K_POINTS automatic
 4 4 4  0 0 0
