 &control
    calculation = 'scf'
    pseudo_dir = '/Users/simonbatzner1/Sci_Software/QE/qe-6.0/pseudo'
    outdir = '.'
    tstress = .true.
    tprnfor = .true.
 /
 &system
    ibrav= 0
nat = 31
    ntyp= 1
    ecutwfc = 5
    ecutrho = 10
 /
 &electrons
    conv_thr =  1.0d-10
    mixing_beta = 0.7
 /
ATOMIC_SPECIES
 Al  26.981539  Al.pz-vbc.UPF
CELL_PARAMETERS {angstrom}
7.95631 0.0 0.0
0.0 7.95631 0.0
0.0 0.0 7.95631
ATOMIC_POSITIONS {angstrom}
Al 0.3813 0.35871 -0.33297
Al 0.25437 1.89296 1.97021
Al 2.06628 -0.28136 1.59303
Al 2.37483 2.24034 -0.09049
Al 0.13652 0.26826 3.94496
Al -0.10258 1.59193 5.79465
Al 2.20214 0.28962 5.87965
Al 2.32069 2.13013 3.88368
Al -0.36268 3.85458 0.07086
Al -0.39716 6.24531 2.19534
Al 2.12773 3.67661 2.33624
Al 2.35466 6.00806 -0.36531
Al -0.37379 4.34078 3.75162
Al 0.17887 6.23528 5.63055
Al 1.909 4.25923 5.85328
Al 2.15165 5.76281 3.80542
Al 3.90096 2.01745 1.79452
Al 6.2296 0.13561 2.29197
Al 6.06392 2.23706 0.19163
Al 3.86822 -0.13713 4.23253
Al 3.89995 1.90061 6.01619
Al 6.17074 0.29589 6.22232
Al 5.91725 2.14164 4.19335
Al 4.24919 4.36964 -0.37881
Al 4.21588 5.96269 1.69004
Al 6.3116 4.15269 1.93204
Al 6.16232 5.85486 0.06285
Al 3.89296 4.02732 4.21971
Al 4.04009 5.7235 5.65004
Al 5.96983 3.71115 5.88885
Al 6.05404 5.60096 4.03214
K_POINTS automatic
 1 1 1 0 0 0
