 &CONTROL
    prefix = 'Al'
    calculation = 'relax'
    pseudo_dir = '/home/homesoftware/espresso-6.1/qe-6.1/pseudo/'
    outdir = '.'
    tstress = .true.
    tprnfor = .true.
    disk_io = 'medium'
    wf_collect = .false.
 /
 &SYSTEM
    ibrav= 0
    nat = 31
    ntyp= 1
    ecutwfc = 30
    nosym = .true.
    occupations = 'smearing'
    smearing = 'mp'
    degauss = 0.02
 /
 &ELECTRONS
    diagonalization = 'david'
    mixing_beta = 0.5
    conv_thr = 1e-07
 /
 &IONS
 /
ATOMIC_SPECIES
   Al  26.981539  Al.pz-vbc.UPF

CELL_PARAMETERS {angstrom}
7.95631 0.0 0.0
0.0 7.95631 0.0
0.0 0.0 7.95631

ATOMIC_POSITIONS {angstrom}
Al -1.7419265416152485e-08 -1.720550169169171e-08 -1.7205501816351602e-08
Al -1.4234394641689086e-08 1.9898974008443568 1.9898974008444503
Al 2.095727519203809 -1.7772701694951997e-08 1.8824340133842619
Al 2.095727519203809 1.882434013384202 -1.777269972413922e-08
Al -1.1074005078945254e-08 -1.705992963348835e-08 3.978148996943905
Al -1.4234223935564643e-08 1.9898974011974997 5.966413658514833
Al 2.0957275040258807 -1.777255455775026e-08 6.073876992361592
Al 1.988264668177506 1.98989741036417 3.9781489828979435
Al -1.107400607819057e-08 3.9781489969437844 -1.705992823239209e-08
Al -1.4234220295714378e-08 5.966413658514833 1.9898974011974997
Al 1.988264668177506 3.9781489828979435 1.98989741036417
Al 2.0957275040258807 6.073876992361592 -1.7772556210527088e-08
Al -1.7074242416665177e-08 3.9781489568555735 3.9781489568555735
Al -1.4234079137432066e-08 5.96641365815842 5.96641365815842
Al 1.988264667817337 3.9781489829029293 5.966413649000524
Al 1.988264667817356 5.966413649000524 3.9781489829029293
Al 3.978148935215249 1.8824342653806945 1.8824342653806945
Al 5.860583311511627 -1.7772542121857226e-08 1.8824343071036984
Al 5.860583311511627 1.8824343071036598 -1.7772539052135068e-08
Al 3.9781489472001463 -1.7205721507187373e-08 3.9781489798067913
Al 3.9781489352202812 1.882434280550169 6.073876740366296
Al 5.860583326684089 -1.7772423598059793e-08 6.0738766986356625
Al 5.968046381216705 1.9898974073266908 3.9781489829029075
Al 3.9781489472003817 3.9781489798067913 -1.7205721213034655e-08
Al 3.978148935219875 6.073876740366296 1.882434280550169
Al 5.968046381216705 3.9781489829029075 1.9898974073266908
Al 5.8605833266839715 6.0738766986357025 -1.777242424023922e-08
Al 3.9781489578712144 3.978148996935728 3.978148996935728
Al 3.978148935224676 6.073876725192435 6.073876725192435
Al 5.968046381570055 3.978148982906722 5.966413652033363
Al 5.968046381570055 5.966413652033336 3.978148982906649

K_POINTS automatic
 4 4 4  0 0 0
