&CONTROL

    prefix = 'Al'
    calculation = 'scf'
    pseudo_dir = '/home/homesoftware/espresso-6.1/qe-6.1/pseudo/'
    outdir = '.'
    tstress = .true.
    tprnfor = .true.
    disk_io = 'medium'
    wf_collect = .false.
 /
&SYSTEM
    ibrav= 0
nat = 31
    ntyp= 1
    ecutwfc = 10
    nosym = .true.
    occupations = 'smearing'
    smearing = 'mp'
    degauss = 0.02
 /
 &ELECTRONS
    diagonalization = 'david'
    mixing_beta = 0.5
    conv_thr = 1e-07
 /
&IONS
 /

ATOMIC_SPECIES
 Al  26.981539  Al.pz-vbc.UPF
CELL_PARAMETERS {angstrom}
 7.95631 0.00000 0.00000
 0.00000 7.95631 0.00000
 0.00000 0.00000 7.95631
ATOMIC_POSITIONS {angstrom}
 Al -0.13182 0.03853 -0.09562
 Al -0.18004 2.16583 2.18505
 Al 2.17930 -0.00629 1.72986
 Al 2.28056 2.06078 0.18022
 Al 0.01424 0.02211 4.06029
 Al 0.06189 1.86490 6.00147
 Al 2.24622 -0.07838 6.17795
 Al 1.80209 2.17809 3.91311
 Al 0.18760 4.08781 0.14943
 Al -0.05704 6.11143 1.97091
 Al 2.06605 3.85130 2.18233
 Al 2.26546 6.02567 0.11441
 Al -0.06399 3.90699 4.08410
 Al 0.19718 5.95739 6.03636
 Al 1.97058 4.06376 5.96600
 Al 2.17748 6.09852 4.03612
 Al 3.81659 1.74860 1.71342
 Al 5.75736 -0.04698 1.82097
 Al 5.99271 1.85831 0.02817
 Al 3.88713 0.11418 4.08672
 Al 3.86330 1.92003 6.25579
 Al 5.79407 0.17777 5.88868
 Al 6.13536 2.02163 4.14432
 Al 3.85575 3.91718 -0.19528
 Al 3.82361 6.04791 1.82821
 Al 5.78299 3.78635 1.85121
 Al 5.74186 5.89034 -0.15332
 Al 3.79675 3.86180 4.07312
 Al 3.90740 5.99179 6.22223
 Al 6.11188 4.14432 6.05614
 Al 5.99655 6.08272 4.16853

K_POINTS automatic
 7 7 7  0 0 0
