 &control
    calculation = 'md'
    pseudo_dir = '/n/holylfs/LABS/kozinsky_lab/Software/qe-6.2.1/pseudo'
    outdir = './output'
    tstress = .true.
    tprnfor = .true.
    dt = 20
    nstep = 1000
 /
 &system
    ibrav= 0
    nat= 64
    ntyp= 1
    ecutwfc =50
    ecutrho = 200
    nosym = .true.
 /
 &electrons
    conv_thr =  1.0d-10
    mixing_beta = 0.7
 /
 &ions
    pot_extrapolation = 'second-order'
    wfc_extrapolation = 'second-order'
    ion_temperature = 'rescale-v'
    tempw = 4000
 /
ATOMIC_SPECIES
 C  12  C.pz-rrkjus.UPF
CELL_PARAMETERS {angstrom}
 7.05356 0.00000 0.00000
 0.00000 7.05356 0.00000
 0.00000 0.00000 7.05356
ATOMIC_POSITIONS {angstrom}
 C 0.00000 0.00000 0.00000
 C 1.76339 1.76339 0.00000
 C 0.00000 1.76339 1.76339
 C 1.76339 0.00000 1.76339
 C 0.88170 0.88170 0.88170
 C 2.64509 2.64509 0.88170
 C 0.88170 2.64509 2.64509
 C 2.64509 0.88170 2.64509
 C 0.00000 0.00000 3.52678
 C 1.76339 1.76339 3.52678
 C 0.00000 1.76339 5.29017
 C 1.76339 0.00000 5.29017
 C 0.88170 0.88170 4.40848
 C 2.64509 2.64509 4.40848
 C 0.88170 2.64509 6.17187
 C 2.64509 0.88170 6.17187
 C 0.00000 3.52678 0.00000
 C 1.76339 5.29017 0.00000
 C 0.00000 5.29017 1.76339
 C 1.76339 3.52678 1.76339
 C 0.88170 4.40848 0.88170
 C 2.64509 6.17187 0.88170
 C 0.88170 6.17187 2.64509
 C 2.64509 4.40848 2.64509
 C 0.00000 3.52678 3.52678
 C 1.76339 5.29017 3.52678
 C 0.00000 5.29017 5.29017
 C 1.76339 3.52678 5.29017
 C 0.88170 4.40848 4.40848
 C 2.64509 6.17187 4.40848
 C 0.88170 6.17187 6.17187
 C 2.64509 4.40848 6.17187
 C 3.52678 0.00000 0.00000
 C 5.29017 1.76339 0.00000
 C 3.52678 1.76339 1.76339
 C 5.29017 0.00000 1.76339
 C 4.40848 0.88170 0.88170
 C 6.17187 2.64509 0.88170
 C 4.40848 2.64509 2.64509
 C 6.17187 0.88170 2.64509
 C 3.52678 0.00000 3.52678
 C 5.29017 1.76339 3.52678
 C 3.52678 1.76339 5.29017
 C 5.29017 0.00000 5.29017
 C 4.40848 0.88170 4.40848
 C 6.17187 2.64509 4.40848
 C 4.40848 2.64509 6.17187
 C 6.17187 0.88170 6.17187
 C 3.52678 3.52678 0.00000
 C 5.29017 5.29017 0.00000
 C 3.52678 5.29017 1.76339
 C 5.29017 3.52678 1.76339
 C 4.40848 4.40848 0.88170
 C 6.17187 6.17187 0.88170
 C 4.40848 6.17187 2.64509
 C 6.17187 4.40848 2.64509
 C 3.52678 3.52678 3.52678
 C 5.29017 5.29017 3.52678
 C 3.52678 5.29017 5.29017
 C 5.29017 3.52678 5.29017
 C 4.40848 4.40848 4.40848
 C 6.17187 6.17187 4.40848
 C 4.40848 6.17187 6.17187
 C 6.17187 4.40848 6.17187
K_POINTS automatic
 3 3 3  0 0 0
