 &control
    calculation = 'md'
    pseudo_dir = '/n/holylfs/LABS/kozinsky_lab/Software/qe-6.2.1/pseudo'
    outdir = './output'
    tstress = .true.
    tprnfor = .true.
    dt = 20
    nstep = 1000
 /
 &system
    ibrav= 0
    nat= 8
    ntyp= 1
    ecutwfc =50
    ecutrho = 200
    nosym = .true.
 /
 &electrons
    conv_thr =  1.0d-10
    mixing_beta = 0.7
 /
 &ions
    pot_extrapolation = 'second-order'
    wfc_extrapolation = 'second-order'
    ion_temperature = 'rescale-v'
    tempw = 1000
 /
ATOMIC_SPECIES
 C  12  C.pz-rrkjus.UPF
CELL_PARAMETERS {angstrom}
 3.52678 0.00000 0.00000
 0.00000 3.52678 0.00000
 0.00000 0.00000 3.52678
ATOMIC_POSITIONS {angstrom}
 C 0.00000 0.00000 0.00000
 C 1.76339 1.76339 0.00000
 C 0.00000 1.76339 1.76339
 C 1.76339 0.00000 1.76339
 C 0.88170 0.88170 0.88170
 C 2.64509 2.64509 0.88170
 C 0.88170 2.64509 2.64509
 C 2.64509 0.88170 2.64509
K_POINTS automatic
 5 5 5  0 0 0
