# generic lammps input file
units metal
atom_style atomic
dimension  3
boundary   p p p
newton on
read_data tmp.data

pair_style flare
pair_coeff * * beta.txt

thermo_style custom pe etotal press pxx pyy pzz pxy pxz pyz

compute 1 all stress/atom NULL
dump 1 all custom 1 tmp.dump id type x y z fx fy fz c_1[1] c_1[2] c_1[3] c_1[4] c_1[5] c_1[6]
dump_modify 1 sort id
run 0
