 &control
    calculation = 'scf'
    pseudo_dir = '/n/home03/jonpvandermause/qe-6.2.1/pseudo'
    outdir = './output'
    tstress = .true.
    tprnfor = .true.
 /
 &system
    ibrav= 0
    nat= 32
    ntyp= 1
    ecutwfc =29
    ecutrho = 143
    occupations = 'smearing'
    smearing = 'mp'
    degauss = 0.01
 /
 &electrons
    conv_thr =  1.0d-10
    mixing_beta = 0.7
    electron_maxstep = 100
 /
ATOMIC_SPECIES
 Al  27  Al.pbe-n-kjpaw_psl.1.0.0.UPF
CELL_PARAMETERS {angstrom}
 8.09200 0.00000 0.00000
 0.00000 8.09200 0.00000
 0.00000 0.00000 8.09200
ATOMIC_POSITIONS {angstrom}
 Al -0.12215 0.20017 -0.19151
 Al 1.82091 2.21001 -0.17432
 Al -0.03577 2.10116 2.16737
 Al 2.09753 -0.07675 1.88986
 Al -0.13962 0.01376 4.21915
 Al 2.11808 2.14664 4.05501
 Al -0.16189 1.86722 5.93368
 Al 1.94705 0.03166 6.01736
 Al -0.16961 3.98676 -0.18771
 Al 1.93227 5.98675 0.07352
 Al 0.05638 6.11337 1.88542
 Al 2.02168 4.08336 1.98409
 Al 0.08658 4.18403 3.90675
 Al 2.02810 6.14929 3.92632
 Al -0.13571 5.95702 5.96776
 Al 2.15516 4.20739 6.10194
 Al 3.96182 -0.06353 0.05805
 Al 6.11696 2.17600 -0.09391
 Al 3.90846 2.00903 2.15318
 Al 5.91678 0.05671 2.06459
 Al 4.10988 0.12984 4.12959
 Al 6.11659 1.86364 3.90466
 Al 3.88847 1.99712 6.20730
 Al 6.10029 0.07462 5.94715
 Al 3.97127 3.87134 -0.02095
 Al 6.15424 5.86736 0.05155
 Al 4.09218 6.20830 1.89330
 Al 6.12442 4.05191 2.02101
 Al 4.17270 3.92836 3.91414
 Al 6.13508 6.17193 3.99938
 Al 4.08950 6.17375 5.99127
 Al 6.07101 4.11919 6.07607
K_POINTS automatic
 7 7 7  0 0 0
