 &control
    calculation = 'scf'
    pseudo_dir = '/n/home03/jonpvandermause/qe-6.2.1/pseudo'
    outdir = './output'
    tstress = .true.
    tprnfor = .true.
 /
 &system
    ibrav= 0
    nat= 32
    ntyp= 1
    ecutwfc =29
    ecutrho = 143
    occupations = 'smearing'
    smearing = 'mp'
    degauss = 0.01
 /
 &electrons
    conv_thr =  1.0d-10
    mixing_beta = 0.7
    electron_maxstep = 100
 /
ATOMIC_SPECIES
 Al  27  Al.pbe-n-kjpaw_psl.1.0.0.UPF
CELL_PARAMETERS {angstrom}
 8.09200 0.00000 0.00000
 0.00000 8.09200 0.00000
 0.00000 0.00000 8.09200
ATOMIC_POSITIONS {angstrom}
 Al 0.04590 0.10500 0.01961
 Al 1.84791 1.86910 0.10298
 Al -0.17755 2.18587 2.21358
 Al 1.83435 -0.03205 2.02452
 Al -0.02279 -0.01997 4.14757
 Al 2.10828 1.90395 4.22869
 Al 0.17464 2.04363 5.94732
 Al 1.98843 0.14447 5.96171
 Al 0.06273 3.90672 -0.14582
 Al 1.83736 5.96347 -0.01751
 Al 0.02876 5.96456 2.04836
 Al 1.93492 4.20875 2.06800
 Al 0.00590 3.90970 3.99073
 Al 2.07321 6.08062 4.04344
 Al -0.16044 6.13362 6.04817
 Al 2.11749 4.23952 6.19665
 Al 3.95004 -0.14141 -0.06361
 Al 6.22307 2.15877 0.10320
 Al 3.90094 1.87013 2.03760
 Al 6.20668 -0.08816 1.90745
 Al 3.90446 0.03811 3.86762
 Al 6.21597 1.94708 3.90754
 Al 4.05290 2.05858 5.92337
 Al 5.98286 0.12741 6.06704
 Al 4.02293 3.93938 0.19151
 Al 5.89253 6.07352 -0.07655
 Al 3.95296 6.16211 1.95474
 Al 5.98104 3.96424 1.90687
 Al 4.23755 4.22062 4.01382
 Al 6.23270 5.86984 3.89405
 Al 4.05764 6.14329 6.26766
 Al 5.97088 4.09890 6.12955
K_POINTS automatic
 7 7 7  0 0 0
