 &control
    calculation = 'scf'
    pseudo_dir = '/n/home03/jonpvandermause/qe-6.2.1/pseudo'
    outdir = './output'
    tstress = .true.
    tprnfor = .true.
 /
 &system
    ibrav= 0
    nat= 32
    ntyp= 1
    ecutwfc =29
    ecutrho = 143
    occupations = 'smearing'
    smearing = 'mp'
    degauss = 0.01
 /
 &electrons
    conv_thr =  1.0d-10
    mixing_beta = 0.7
    electron_maxstep = 100
 /
ATOMIC_SPECIES
 Al  27  Al.pbe-n-kjpaw_psl.1.0.0.UPF
CELL_PARAMETERS {angstrom}
 8.09200 0.00000 0.00000
 0.00000 8.09200 0.00000
 0.00000 0.00000 8.09200
ATOMIC_POSITIONS {angstrom}
 Al -0.03872 0.02978 0.02018
 Al 1.98262 2.03940 0.02730
 Al -0.03729 2.01303 2.04343
 Al 2.00162 -0.04010 2.00532
 Al -0.02888 0.01353 4.00998
 Al 2.03566 1.98541 4.04636
 Al -0.00615 2.05899 6.10134
 Al 2.04251 0.02903 6.04732
 Al -0.03817 4.05658 -0.00254
 Al 1.99759 6.08663 -0.00904
 Al -0.00994 6.09397 2.05357
 Al 2.00310 4.04946 2.04053
 Al 0.03012 4.04617 4.06860
 Al 2.04945 6.04169 4.03390
 Al 0.04006 6.08625 6.04657
 Al 2.01200 4.04042 6.04306
 Al 4.05924 -0.00571 -0.00882
 Al 6.10767 2.04372 0.03534
 Al 4.08408 2.03246 2.05960
 Al 6.10033 -0.02686 1.99520
 Al 4.02294 0.01916 4.05528
 Al 6.03834 2.03378 4.07125
 Al 4.04752 2.01775 6.10876
 Al 6.09029 -0.00128 6.06757
 Al 4.04708 4.00610 0.01350
 Al 6.10837 6.03873 0.00207
 Al 4.03750 6.03404 2.02783
 Al 6.06074 4.07226 2.01893
 Al 4.03274 4.03128 4.05066
 Al 6.06207 6.08445 4.04488
 Al 4.06323 6.07344 6.09356
 Al 6.07915 4.08227 6.03270
K_POINTS automatic
 7 7 7  0 0 0
