 &control
    calculation = 'scf'
    pseudo_dir = '/n/home03/jonpvandermause/qe-6.2.1/pseudo'
    outdir = './output'
    tstress = .true.
    tprnfor = .true.
 /
 &system
    ibrav= 0
    nat= 32
    ntyp= 1
    ecutwfc =29
    ecutrho = 143
    occupations = 'smearing'
    smearing = 'mp'
    degauss = 0.01
 /
 &electrons
    conv_thr =  1.0d-10
    mixing_beta = 0.7
    electron_maxstep = 100
 /
ATOMIC_SPECIES
 Al  27  Al.pbe-n-kjpaw_psl.1.0.0.UPF
CELL_PARAMETERS {angstrom}
 8.09200 0.00000 0.00000
 0.00000 8.09200 0.00000
 0.00000 0.00000 8.09200
ATOMIC_POSITIONS {angstrom}
 Al 0.15756 0.12224 -0.13519
 Al 1.89237 1.87548 -0.07740
 Al -0.14718 2.08322 2.11007
 Al 1.82810 -0.20121 2.13657
 Al -0.02690 0.00194 4.15782
 Al 2.05020 1.91269 4.11600
 Al 0.17136 2.20143 6.12261
 Al 2.13489 -0.07284 6.12762
 Al -0.12707 3.86768 -0.15214
 Al 1.85071 5.88896 -0.09232
 Al -0.07685 6.20346 2.12466
 Al 2.02212 3.94019 2.17138
 Al -0.12971 3.99490 4.04632
 Al 2.11002 6.09050 4.21362
 Al 0.11987 5.99950 6.21478
 Al 1.91815 4.14850 6.12461
 Al 4.03180 -0.10918 -0.16395
 Al 5.95435 1.82794 -0.16776
 Al 3.99186 1.85357 1.93795
 Al 6.09445 -0.06251 1.87735
 Al 4.13725 -0.02517 4.13832
 Al 5.88608 1.85756 4.04871
 Al 4.01020 2.21184 6.12997
 Al 6.05813 0.17757 5.88031
 Al 3.97060 4.18557 0.00495
 Al 6.03576 5.98912 -0.19877
 Al 3.98510 5.95337 1.86861
 Al 5.88315 4.06082 1.90840
 Al 4.04603 4.21351 4.24349
 Al 6.18002 6.18788 4.16966
 Al 4.14549 6.04856 5.89566
 Al 6.18545 4.15429 5.87987
K_POINTS automatic
 7 7 7  0 0 0
