 &control
    calculation = 'scf'
    pseudo_dir = '/n/home03/jonpvandermause/qe-6.2.1/pseudo'
    outdir = './output'
    tstress = .true.
    tprnfor = .true.
 /
 &system
    ibrav= 0
    nat= 32
    ntyp= 1
    ecutwfc =29
    ecutrho = 143
    occupations = 'smearing'
    smearing = 'mp'
    degauss = 0.01
 /
 &electrons
    conv_thr =  1.0d-10
    mixing_beta = 0.7
    electron_maxstep = 100
 /
ATOMIC_SPECIES
 Al  27  Al.pbe-n-kjpaw_psl.1.0.0.UPF
CELL_PARAMETERS {angstrom}
 8.09200 0.00000 0.00000
 0.00000 8.09200 0.00000
 0.00000 0.00000 8.09200
ATOMIC_POSITIONS {angstrom}
 Al -0.03204 0.16573 -0.12248
 Al 1.94909 2.21243 0.07305
 Al 0.14147 1.96603 2.19854
 Al 1.90911 -0.17163 2.20276
 Al -0.08192 -0.03651 4.01399
 Al 1.91379 1.86612 4.20445
 Al 0.09948 2.05120 6.13076
 Al 2.16507 0.11716 6.07173
 Al 0.05348 4.10752 0.00580
 Al 1.91663 6.01198 0.19051
 Al 0.07472 5.97130 1.93293
 Al 2.10256 3.96668 1.98655
 Al 0.18811 4.10332 4.06942
 Al 2.15791 6.26386 4.04859
 Al 0.19322 6.08050 6.12349
 Al 1.96209 4.14043 6.14850
 Al 4.07017 0.17088 -0.01861
 Al 5.98250 2.17078 -0.19434
 Al 4.07874 2.15033 2.05181
 Al 5.86991 0.14619 1.95240
 Al 4.11163 -0.06681 4.17274
 Al 5.99833 1.84213 4.24377
 Al 3.84493 2.15310 5.99456
 Al 6.08872 -0.11372 6.20421
 Al 4.18964 4.01655 0.17188
 Al 6.22095 6.04994 0.15537
 Al 4.22677 5.87573 2.11549
 Al 5.87448 4.00305 2.20778
 Al 3.87338 4.03539 4.08008
 Al 5.99793 6.00094 3.88543
 Al 4.16664 5.89342 6.13669
 Al 6.13827 3.96882 5.96323
K_POINTS automatic
 7 7 7  0 0 0
