 &control
    calculation = 'scf'
    pseudo_dir = '/n/home03/jonpvandermause/qe-6.2.1/pseudo'
    outdir = './output'
    tstress = .true.
    tprnfor = .true.
 /
 &system
    ibrav= 0
    nat= 32
    ntyp= 1
    ecutwfc =29
    ecutrho = 143
    occupations = 'smearing'
    smearing = 'mp'
    degauss = 0.01
 /
 &electrons
    conv_thr =  1.0d-10
    mixing_beta = 0.7
    electron_maxstep = 100
 /
ATOMIC_SPECIES
 Al  27  Al.pbe-n-kjpaw_psl.1.0.0.UPF
CELL_PARAMETERS {angstrom}
 8.09200 0.00000 0.00000
 0.00000 8.09200 0.00000
 0.00000 0.00000 8.09200
ATOMIC_POSITIONS {angstrom}
 Al 0.01948 -0.01103 -0.03215
 Al 2.04245 2.05586 0.01653
 Al 0.02819 1.99295 2.05660
 Al 2.05081 -0.01186 2.01455
 Al 0.03779 0.03416 4.01231
 Al 2.02750 1.99406 4.04298
 Al 0.00204 2.05801 6.05195
 Al 2.05190 0.02009 6.04309
 Al 0.00736 4.03220 0.02984
 Al 2.03219 6.03783 0.03078
 Al -0.03018 6.10070 2.01022
 Al 1.98884 4.00715 2.02586
 Al 0.00294 4.06276 4.00768
 Al 2.00704 6.08700 4.08532
 Al -0.02220 6.09282 6.03679
 Al 2.04784 4.01116 6.08404
 Al 4.05835 0.02050 0.00119
 Al 6.04499 2.06089 -0.03048
 Al 4.03608 1.99080 2.02898
 Al 6.05223 0.03672 2.04224
 Al 4.02767 -0.03041 4.05382
 Al 6.04176 2.05804 4.04456
 Al 4.00854 2.01546 6.06294
 Al 6.08274 0.00783 6.05879
 Al 4.02179 4.04158 0.03227
 Al 6.04124 6.09059 -0.01778
 Al 4.05296 6.06594 2.00556
 Al 6.03135 4.06597 2.03179
 Al 4.05611 4.00909 4.05580
 Al 6.03306 6.08472 4.05491
 Al 4.05202 6.08632 6.07755
 Al 6.06121 4.01136 6.08675
K_POINTS automatic
 7 7 7  0 0 0
