 &control
    calculation = 'scf'
    pseudo_dir = '/n/home03/jonpvandermause/qe-6.2.1/pseudo'
    outdir = './output'
    tstress = .true.
    tprnfor = .true.
 /
 &system
    ibrav= 0
    nat= 32
    ntyp= 1
    ecutwfc =29
    ecutrho = 143
    occupations = 'smearing'
    smearing = 'mp'
    degauss = 0.01
 /
 &electrons
    conv_thr =  1.0d-10
    mixing_beta = 0.7
    electron_maxstep = 100
 /
ATOMIC_SPECIES
 Al  27  Al.pbe-n-kjpaw_psl.1.0.0.UPF
CELL_PARAMETERS {angstrom}
 8.09200 0.00000 0.00000
 0.00000 8.09200 0.00000
 0.00000 0.00000 8.09200
ATOMIC_POSITIONS {angstrom}
 Al -0.12330 0.06649 0.00241
 Al 1.85478 1.94711 -0.04718
 Al 0.01553 2.03168 1.83825
 Al 2.07208 0.17443 1.95608
 Al -0.14035 -0.18412 4.06547
 Al 2.07153 2.05701 4.03385
 Al -0.16181 2.01836 6.17307
 Al 1.99516 -0.04231 6.26168
 Al 0.02540 3.92667 0.17530
 Al 2.08010 6.25856 -0.18384
 Al -0.05189 5.90666 2.16996
 Al 2.21525 4.11092 1.85926
 Al -0.14032 3.89464 4.15543
 Al 1.85087 6.14258 3.86212
 Al -0.14429 5.97507 6.17909
 Al 2.18105 4.12801 6.10411
 Al 4.03707 0.12837 0.09290
 Al 6.24084 2.16546 -0.01356
 Al 4.09734 2.07178 1.89633
 Al 6.10533 0.05984 1.89249
 Al 3.85584 0.01047 4.08793
 Al 5.86748 1.94048 4.06998
 Al 4.20287 2.12946 6.19488
 Al 5.92285 0.17368 6.19100
 Al 4.15677 4.22768 0.12507
 Al 6.02545 6.01100 0.15048
 Al 3.86831 5.97755 2.04309
 Al 6.05230 4.11486 1.87177
 Al 4.22011 4.00946 4.03498
 Al 6.07443 5.94817 3.92254
 Al 4.24421 5.88789 5.89337
 Al 6.15660 4.12754 6.23421
K_POINTS automatic
 7 7 7  0 0 0
