 &control
    calculation = 'scf'
    pseudo_dir = '/n/home03/jonpvandermause/qe-6.2.1/pseudo'
    outdir = './output'
    tstress = .true.
    tprnfor = .true.
 /
 &system
    ibrav= 0
    nat= 32
    ntyp= 1
    ecutwfc =29
    ecutrho = 143
    occupations = 'smearing'
    smearing = 'mp'
    degauss = 0.01
 /
 &electrons
    conv_thr =  1.0d-10
    mixing_beta = 0.7
    electron_maxstep = 100
 /
ATOMIC_SPECIES
 Al  27  Al.pbe-n-kjpaw_psl.1.0.0.UPF
CELL_PARAMETERS {angstrom}
 8.09200 0.00000 0.00000
 0.00000 8.09200 0.00000
 0.00000 0.00000 8.09200
ATOMIC_POSITIONS {angstrom}
 Al 0.01100 0.00780 -0.00193
 Al 2.03786 2.05245 -0.03785
 Al 0.00341 2.03614 2.02803
 Al 2.03906 -0.03345 1.99533
 Al 0.00082 0.00287 4.06375
 Al 2.01763 2.04961 4.02221
 Al 0.03904 2.00404 6.04113
 Al 2.00699 0.01663 6.09858
 Al -0.02213 4.02144 0.02209
 Al 1.98532 6.09760 -0.03741
 Al 0.01964 6.08935 2.00270
 Al 2.01486 4.05611 2.01002
 Al 0.00665 4.01876 4.06014
 Al 1.98599 6.10819 4.07997
 Al -0.03778 6.05830 6.10872
 Al 2.01259 4.03991 6.10357
 Al 4.00608 -0.01048 0.02376
 Al 6.07261 2.00284 -0.03037
 Al 4.02364 2.04063 2.01190
 Al 6.09884 -0.02521 2.03036
 Al 4.02316 -0.02162 4.05156
 Al 6.04217 2.05003 4.07441
 Al 4.06467 2.02041 6.10296
 Al 6.08619 0.03240 6.05203
 Al 4.05573 4.07568 0.00674
 Al 6.09184 6.08521 0.03707
 Al 4.02721 6.03219 2.02175
 Al 6.09271 4.07888 2.00499
 Al 4.01471 4.01241 4.05709
 Al 6.03205 6.08052 4.00846
 Al 4.06844 6.03611 6.07350
 Al 6.02909 4.00877 6.07008
K_POINTS automatic
 7 7 7  0 0 0
