 &control
    calculation = 'scf'
    pseudo_dir = '/n/home03/jonpvandermause/qe-6.2.1/pseudo'
    outdir = './output'
    tstress = .true.
    tprnfor = .true.
 /
 &system
    ibrav= 0
    nat= 32
    ntyp= 1
    ecutwfc =29
    ecutrho = 143
    occupations = 'smearing'
    smearing = 'mp'
    degauss = 0.01
 /
 &electrons
    conv_thr =  1.0d-10
    mixing_beta = 0.7
    electron_maxstep = 100
 /
ATOMIC_SPECIES
 Al  27  Al.pbe-n-kjpaw_psl.1.0.0.UPF
CELL_PARAMETERS {angstrom}
 8.09200 0.00000 0.00000
 0.00000 8.09200 0.00000
 0.00000 0.00000 8.09200
ATOMIC_POSITIONS {angstrom}
 Al -0.10242 -0.05822 0.17298
 Al 2.02933 1.87992 0.13165
 Al 0.15858 2.21069 1.82656
 Al 1.89919 0.17760 1.86939
 Al 0.17834 0.11157 3.93962
 Al 2.22165 1.82446 4.04030
 Al -0.09650 2.07793 6.20668
 Al 2.12270 0.06252 5.96170
 Al 0.14356 4.18367 -0.10711
 Al 1.90348 6.16690 -0.16196
 Al 0.00280 5.96013 2.22410
 Al 2.01824 4.17261 2.03623
 Al 0.13131 3.93182 3.93911
 Al 2.02488 6.15549 4.13004
 Al 0.06569 5.96566 5.90823
 Al 1.97007 4.16215 6.25242
 Al 4.22282 -0.03217 0.19868
 Al 6.02005 2.20309 -0.01705
 Al 4.12386 2.17611 1.94313
 Al 5.96071 -0.01595 2.22487
 Al 3.94452 -0.03360 3.96256
 Al 6.08921 2.18738 4.18212
 Al 4.22910 1.85337 6.04623
 Al 6.21765 -0.09075 6.09497
 Al 4.22847 4.17172 -0.18023
 Al 6.22871 6.16869 0.00849
 Al 3.96711 5.98179 1.91515
 Al 6.07669 4.19434 2.16359
 Al 3.86036 4.14928 4.03907
 Al 6.00477 6.18261 4.22377
 Al 4.21107 6.15845 6.15291
 Al 6.24297 4.20648 5.93872
K_POINTS automatic
 7 7 7  0 0 0
