 &control
    calculation = 'scf'
    pseudo_dir = '/n/home03/jonpvandermause/qe-6.2.1/pseudo'
    outdir = './output'
    tstress = .true.
    tprnfor = .true.
 /
 &system
    ibrav= 0
    nat= 32
    ntyp= 1
    ecutwfc =29
    ecutrho = 143
    occupations = 'smearing'
    smearing = 'mp'
    degauss = 0.01
 /
 &electrons
    conv_thr =  1.0d-10
    mixing_beta = 0.7
    electron_maxstep = 100
 /
ATOMIC_SPECIES
 Al  27  Al.pbe-n-kjpaw_psl.1.0.0.UPF
CELL_PARAMETERS {angstrom}
 8.09200 0.00000 0.00000
 0.00000 8.09200 0.00000
 0.00000 0.00000 8.09200
ATOMIC_POSITIONS {angstrom}
 Al 0.07788 -0.03044 0.11971
 Al 2.13531 1.98285 -0.05269
 Al 0.02173 2.17979 1.92208
 Al 2.02148 -0.18388 2.00924
 Al 0.08153 0.03204 4.21067
 Al 2.22470 2.09345 4.02384
 Al 0.13577 2.16167 5.91285
 Al 2.13411 -0.17611 5.86774
 Al -0.19933 4.10625 0.14968
 Al 1.86965 5.97203 0.10916
 Al 0.20105 5.93269 1.87540
 Al 2.13824 4.07077 1.84083
 Al 0.04473 4.14705 4.11490
 Al 2.19924 5.90412 4.03533
 Al 0.09008 6.04337 6.16083
 Al 2.17939 4.21210 5.88730
 Al 4.11744 -0.12777 0.02351
 Al 5.92014 1.97458 0.13817
 Al 4.17103 2.12543 2.17502
 Al 6.04122 0.15402 2.22457
 Al 3.98745 0.12850 4.18132
 Al 6.03170 1.97698 4.16983
 Al 3.90683 2.19863 6.09510
 Al 6.02460 -0.06948 6.03363
 Al 4.12615 3.92544 -0.06829
 Al 6.19671 6.16660 -0.18322
 Al 3.87872 6.16285 2.14847
 Al 6.20797 4.21764 2.05992
 Al 3.97669 3.93265 3.98500
 Al 6.16663 6.10137 3.90617
 Al 4.14105 6.18892 5.89520
 Al 6.07746 4.11369 6.24624
K_POINTS automatic
 7 7 7  0 0 0
