 &control
    calculation = 'scf'
    pseudo_dir = '/n/home03/jonpvandermause/qe-6.2.1/pseudo'
    outdir = './output'
    tstress = .true.
    tprnfor = .true.
 /
 &system
    ibrav= 0
    nat= 32
    ntyp= 1
    ecutwfc =29
    ecutrho = 143
    occupations = 'smearing'
    smearing = 'mp'
    degauss = 0.01
 /
 &electrons
    conv_thr =  1.0d-10
    mixing_beta = 0.7
    electron_maxstep = 100
 /
ATOMIC_SPECIES
 Al  27  Al.pbe-n-kjpaw_psl.1.0.0.UPF
CELL_PARAMETERS {angstrom}
 8.09200 0.00000 0.00000
 0.00000 8.09200 0.00000
 0.00000 0.00000 8.09200
ATOMIC_POSITIONS {angstrom}
 Al -0.02101 0.01223 -0.04030
 Al 1.99608 1.98617 0.00410
 Al -0.04010 2.02453 2.05443
 Al 2.00754 0.03046 2.00514
 Al -0.00114 0.01553 4.00699
 Al 2.01978 2.01739 4.00936
 Al -0.00963 2.05296 6.08477
 Al 1.99745 -0.03382 6.05833
 Al -0.00677 4.05426 0.00547
 Al 2.00463 6.09405 -0.01640
 Al 0.02263 6.06784 1.98640
 Al 2.05910 4.05999 2.03695
 Al -0.02952 4.03121 4.02255
 Al 1.99361 6.03876 4.03732
 Al 0.01628 6.05881 6.06605
 Al 2.01893 4.08510 6.08600
 Al 4.07387 -0.01917 0.01050
 Al 6.04670 2.03607 -0.04017
 Al 4.06302 2.05839 2.00137
 Al 6.09866 -0.02704 2.01898
 Al 4.02959 0.03201 4.06463
 Al 6.04070 1.99816 4.05177
 Al 4.05912 2.00925 6.09435
 Al 6.08350 -0.02490 6.05165
 Al 4.02398 4.02674 0.00603
 Al 6.04296 6.08153 -0.00360
 Al 4.04465 6.07033 2.03832
 Al 6.02990 4.02542 1.99785
 Al 4.02329 4.08092 4.08334
 Al 6.07052 6.10540 4.01967
 Al 4.02512 6.10144 6.08023
 Al 6.09399 4.04124 6.03803
K_POINTS automatic
 7 7 7  0 0 0
