 &control
    calculation = 'scf'
    pseudo_dir = '/n/home03/jonpvandermause/qe-6.2.1/pseudo'
    outdir = './output'
    tstress = .true.
    tprnfor = .true.
 /
 &system
    ibrav= 0
    nat= 32
    ntyp= 1
    ecutwfc =29
    ecutrho = 143
    occupations = 'smearing'
    smearing = 'mp'
    degauss = 0.01
 /
 &electrons
    conv_thr =  1.0d-10
    mixing_beta = 0.7
    electron_maxstep = 100
 /
ATOMIC_SPECIES
 Al  27  Al.pbe-n-kjpaw_psl.1.0.0.UPF
CELL_PARAMETERS {angstrom}
 8.09200 0.00000 0.00000
 0.00000 8.09200 0.00000
 0.00000 0.00000 8.09200
ATOMIC_POSITIONS {angstrom}
 Al -0.01582 0.04010 0.02689
 Al 2.02540 2.04779 0.00151
 Al 0.03098 2.03171 2.01994
 Al 2.03814 0.00428 2.01207
 Al 0.01251 -0.02900 4.07488
 Al 2.03582 2.04905 4.00920
 Al -0.01320 1.98737 6.04088
 Al 2.05379 -0.02368 6.06931
 Al 0.00124 4.08431 -0.01804
 Al 2.02692 6.06432 0.00727
 Al 0.03622 6.02972 2.04065
 Al 2.01518 4.06662 2.00260
 Al 0.02958 4.04572 4.05104
 Al 2.01442 6.10074 4.02271
 Al -0.02202 6.08643 6.04006
 Al 2.04240 4.06997 6.04888
 Al 4.07889 -0.01034 0.04003
 Al 6.04364 2.02495 0.00843
 Al 4.02822 2.04573 1.99900
 Al 6.04735 -0.00573 1.99119
 Al 4.01820 -0.04026 4.04096
 Al 6.05345 2.03787 4.01806
 Al 4.04715 2.02119 6.03322
 Al 6.09413 0.02571 6.10103
 Al 4.03777 4.02044 0.01768
 Al 6.08220 6.06337 0.01622
 Al 4.06763 6.08176 2.00280
 Al 6.03884 4.07604 2.03257
 Al 4.02233 4.03617 4.02807
 Al 6.04309 6.09834 4.03027
 Al 4.04394 6.08050 6.09241
 Al 6.04089 4.07796 6.03004
K_POINTS automatic
 7 7 7  0 0 0
