 &control
    calculation = 'scf'
    pseudo_dir = '/n/home03/jonpvandermause/qe-6.2.1/pseudo'
    outdir = './output'
    tstress = .true.
    tprnfor = .true.
 /
 &system
    ibrav= 0
    nat= 32
    ntyp= 1
    ecutwfc =29
    ecutrho = 143
    occupations = 'smearing'
    smearing = 'mp'
    degauss = 0.01
 /
 &electrons
    conv_thr =  1.0d-10
    mixing_beta = 0.7
    electron_maxstep = 100
 /
ATOMIC_SPECIES
 Al  27  Al.pbe-n-kjpaw_psl.1.0.0.UPF
CELL_PARAMETERS {angstrom}
 8.09200 0.00000 0.00000
 0.00000 8.09200 0.00000
 0.00000 0.00000 8.09200
ATOMIC_POSITIONS {angstrom}
 Al 0.13408 -0.14815 -0.12683
 Al 1.95446 2.02604 0.02132
 Al -0.17896 1.98796 1.90508
 Al 2.05786 -0.11979 1.84423
 Al -0.00799 0.01998 4.12705
 Al 1.95697 2.06459 4.15643
 Al 0.05510 1.83907 6.13368
 Al 2.01230 0.01729 6.04276
 Al 0.12350 4.17289 -0.08486
 Al 2.01931 5.93683 -0.04973
 Al 0.11711 5.92913 2.12542
 Al 1.90838 4.10310 2.14622
 Al -0.08539 4.10429 4.12174
 Al 2.20844 5.90634 4.06203
 Al 0.08114 6.02560 6.00254
 Al 2.14121 3.90704 6.03533
 Al 4.11753 0.18447 0.17299
 Al 6.14160 2.02187 -0.03489
 Al 3.97057 2.01242 2.02864
 Al 6.04424 0.05891 2.13309
 Al 3.84701 0.17290 3.97979
 Al 5.96475 1.98024 3.93292
 Al 4.18315 1.83334 5.93293
 Al 6.15818 0.07333 5.96382
 Al 3.97406 3.97760 -0.19267
 Al 6.06218 6.16985 -0.06791
 Al 4.14169 6.20406 2.01700
 Al 6.07761 4.21172 2.14873
 Al 3.93235 4.04355 3.86128
 Al 6.14342 6.21349 3.91074
 Al 4.03475 6.21925 5.98377
 Al 6.01269 4.06642 6.14307
K_POINTS automatic
 7 7 7  0 0 0
