 &control
    calculation = 'scf'
    pseudo_dir = '/n/home03/jonpvandermause/qe-6.2.1/pseudo'
    outdir = './output'
    tstress = .true.
    tprnfor = .true.
 /
 &system
    ibrav= 0
    nat= 32
    ntyp= 1
    ecutwfc =29
    ecutrho = 143
    occupations = 'smearing'
    smearing = 'mp'
    degauss = 0.01
 /
 &electrons
    conv_thr =  1.0d-10
    mixing_beta = 0.7
    electron_maxstep = 100
 /
ATOMIC_SPECIES
 Al  27  Al.pbe-n-kjpaw_psl.1.0.0.UPF
CELL_PARAMETERS {angstrom}
 8.09200 0.00000 0.00000
 0.00000 8.09200 0.00000
 0.00000 0.00000 8.09200
ATOMIC_POSITIONS {angstrom}
 Al -0.02701 0.02986 -0.02600
 Al 2.02219 2.01714 -0.03535
 Al 0.04001 2.04276 2.00776
 Al 2.01350 0.00733 2.04809
 Al -0.02953 -0.00597 4.01793
 Al 2.05910 2.01356 4.00580
 Al 0.03621 2.06038 6.09454
 Al 2.04530 -0.01011 6.08294
 Al -0.00695 4.02047 -0.00698
 Al 2.03863 6.07381 -0.01189
 Al 0.01290 6.06565 2.01395
 Al 2.01216 4.04025 2.05019
 Al 0.01942 4.05837 4.07443
 Al 2.05687 6.05829 4.00565
 Al -0.01075 6.09261 6.08425
 Al 2.02784 4.01452 6.08409
 Al 4.01066 -0.02356 -0.01520
 Al 6.06149 2.06024 -0.02449
 Al 4.05051 1.98641 1.98323
 Al 6.09107 -0.01303 2.05354
 Al 4.00919 0.00011 4.06844
 Al 6.05008 2.03452 4.06116
 Al 4.04052 2.05508 6.05782
 Al 6.05227 0.01415 6.03648
 Al 4.07531 4.03685 -0.02137
 Al 6.09599 6.06023 -0.01010
 Al 4.01233 6.06097 1.99080
 Al 6.06531 4.04270 1.98896
 Al 4.04167 4.03790 4.08086
 Al 6.09305 6.03941 4.06222
 Al 4.03896 6.09950 6.04074
 Al 6.09396 4.04982 6.10312
K_POINTS automatic
 7 7 7  0 0 0
