 &control
    calculation = 'scf'
    pseudo_dir = '/n/home03/jonpvandermause/qe-6.2.1/pseudo'
    outdir = './output'
    tstress = .true.
    tprnfor = .true.
 /
 &system
    ibrav= 0
    nat= 32
    ntyp= 1
    ecutwfc =29
    ecutrho = 143
    occupations = 'smearing'
    smearing = 'mp'
    degauss = 0.01
 /
 &electrons
    conv_thr =  1.0d-10
    mixing_beta = 0.7
    electron_maxstep = 100
 /
ATOMIC_SPECIES
 Al  27  Al.pbe-n-kjpaw_psl.1.0.0.UPF
CELL_PARAMETERS {angstrom}
 8.09200 0.00000 0.00000
 0.00000 8.09200 0.00000
 0.00000 0.00000 8.09200
ATOMIC_POSITIONS {angstrom}
 Al -0.01355 -0.07426 0.16726
 Al 2.11584 1.83785 0.08059
 Al 0.20063 1.99030 2.20877
 Al 1.99521 -0.03579 1.91034
 Al 0.06163 -0.11235 3.97560
 Al 2.02377 1.86627 3.95484
 Al 0.08477 1.87726 5.90031
 Al 2.06991 0.13072 6.20856
 Al 0.14496 4.12017 0.10061
 Al 2.07964 6.13848 0.13737
 Al 0.11634 6.18263 1.99072
 Al 2.21779 3.93161 1.93968
 Al 0.05751 3.99896 4.09056
 Al 1.98795 5.90552 4.17332
 Al -0.19670 6.13300 6.14422
 Al 1.99356 4.07545 6.14159
 Al 4.22430 0.11429 0.05366
 Al 6.26634 2.09184 -0.02364
 Al 3.98388 1.92877 1.86272
 Al 6.18270 -0.03254 1.98822
 Al 3.95392 0.10158 4.04645
 Al 5.88782 1.82880 3.95287
 Al 4.20158 2.06450 5.94055
 Al 6.23098 0.17964 5.93084
 Al 4.10108 3.96501 0.13935
 Al 6.12180 5.93522 -0.02635
 Al 3.95198 5.99570 1.92377
 Al 5.89785 4.05555 1.94184
 Al 4.11486 4.04662 4.23240
 Al 5.91374 6.12386 4.09118
 Al 3.97461 5.93069 6.00539
 Al 5.96834 3.94076 6.26170
K_POINTS automatic
 7 7 7  0 0 0
