 &control
    calculation = 'scf'
    pseudo_dir = '/n/home03/jonpvandermause/qe-6.2.1/pseudo'
    outdir = './output'
    tstress = .true.
    tprnfor = .true.
 /
 &system
    ibrav= 0
    nat= 32
    ntyp= 1
    ecutwfc =29
    ecutrho = 143
    occupations = 'smearing'
    smearing = 'mp'
    degauss = 0.01
 /
 &electrons
    conv_thr =  1.0d-10
    mixing_beta = 0.7
    electron_maxstep = 100
 /
ATOMIC_SPECIES
 Al  27  Al.pbe-n-kjpaw_psl.1.0.0.UPF
CELL_PARAMETERS {angstrom}
 8.09200 0.00000 0.00000
 0.00000 8.09200 0.00000
 0.00000 0.00000 8.09200
ATOMIC_POSITIONS {angstrom}
 Al 0.01979 -0.00195 -0.05098
 Al 1.87833 1.95222 0.16119
 Al 0.03596 2.13168 1.91867
 Al 1.87550 -0.03819 1.82896
 Al -0.16659 0.00061 3.95864
 Al 1.99036 2.07082 3.86609
 Al 0.19411 2.15456 6.01834
 Al 1.84587 0.05292 5.89989
 Al 0.05875 4.00100 -0.13354
 Al 2.16772 5.94372 0.10303
 Al -0.01617 5.87646 1.93696
 Al 2.00851 4.23060 2.17681
 Al -0.14015 4.13478 4.23993
 Al 1.97150 5.99673 4.10950
 Al 0.00342 6.06767 6.17105
 Al 1.82193 4.18208 5.94890
 Al 3.97566 -0.17928 -0.19952
 Al 5.96731 1.94850 0.19288
 Al 4.19348 2.15584 2.08924
 Al 5.92610 -0.11561 1.93522
 Al 4.10096 -0.18969 3.94998
 Al 6.06964 2.09366 3.86926
 Al 4.22911 1.89800 6.17126
 Al 6.04732 -0.18540 6.20328
 Al 4.02939 4.09919 -0.11587
 Al 5.92750 5.95228 0.04554
 Al 4.24247 5.90424 1.95581
 Al 6.18833 3.98050 2.13434
 Al 3.99056 3.86768 3.99233
 Al 6.15672 5.88089 3.85356
 Al 4.07147 6.01160 6.08677
 Al 6.01578 4.20978 6.17865
K_POINTS automatic
 7 7 7  0 0 0
