 &control
    calculation = 'scf'
    pseudo_dir = '/n/home03/jonpvandermause/qe-6.2.1/pseudo'
    outdir = './output'
    tstress = .true.
    tprnfor = .true.
 /
 &system
    ibrav= 0
    nat= 32
    ntyp= 1
    ecutwfc =29
    ecutrho = 143
    occupations = 'smearing'
    smearing = 'mp'
    degauss = 0.01
 /
 &electrons
    conv_thr =  1.0d-10
    mixing_beta = 0.7
    electron_maxstep = 100
 /
ATOMIC_SPECIES
 Al  27  Al.pbe-n-kjpaw_psl.1.0.0.UPF
CELL_PARAMETERS {angstrom}
 8.09200 0.00000 0.00000
 0.00000 8.09200 0.00000
 0.00000 0.00000 8.09200
ATOMIC_POSITIONS {angstrom}
 Al -0.00092 -0.01360 -0.00016
 Al 2.05536 1.99374 -0.01483
 Al -0.00852 2.01093 2.05232
 Al 2.04673 0.00666 2.02783
 Al -0.01343 -0.03030 4.07082
 Al 2.04762 1.98744 4.04652
 Al -0.03089 2.04256 6.09765
 Al 2.01109 0.02453 6.10157
 Al -0.00290 4.07160 -0.03621
 Al 2.03187 6.07703 0.02752
 Al -0.03879 6.03454 2.04975
 Al 2.04262 4.06492 2.01525
 Al 0.01261 4.06603 4.05058
 Al 2.02143 6.10245 4.04743
 Al -0.00366 6.04464 6.06404
 Al 1.99397 4.06088 6.07462
 Al 4.02248 0.01458 0.00005
 Al 6.05141 2.05495 0.01136
 Al 4.08051 2.06174 2.06099
 Al 6.04313 -0.00327 2.03184
 Al 4.05998 -0.01904 4.05431
 Al 6.07834 2.03163 4.01312
 Al 4.05235 2.03377 6.06801
 Al 6.05810 -0.02199 6.03047
 Al 4.06147 4.06056 -0.01070
 Al 6.07643 6.04093 -0.02765
 Al 4.01386 6.03868 2.00374
 Al 6.03828 4.07350 1.99688
 Al 4.02642 4.06144 4.04277
 Al 6.04405 6.06276 4.02628
 Al 4.07986 6.05669 6.05054
 Al 6.05342 4.01612 6.06272
K_POINTS automatic
 7 7 7  0 0 0
