 &control
    calculation = 'scf'
    pseudo_dir = '/n/home03/jonpvandermause/qe-6.2.1/pseudo'
    outdir = './output'
    tstress = .true.
    tprnfor = .true.
 /
 &system
    ibrav= 0
    nat= 32
    ntyp= 1
    ecutwfc =29
    ecutrho = 143
    occupations = 'smearing'
    smearing = 'mp'
    degauss = 0.01
 /
 &electrons
    conv_thr =  1.0d-10
    mixing_beta = 0.7
    electron_maxstep = 100
 /
ATOMIC_SPECIES
 Al  27  Al.pbe-n-kjpaw_psl.1.0.0.UPF
CELL_PARAMETERS {angstrom}
 8.09200 0.00000 0.00000
 0.00000 8.09200 0.00000
 0.00000 0.00000 8.09200
ATOMIC_POSITIONS {angstrom}
 Al 0.02609 -0.03962 0.03035
 Al 1.99447 2.02343 0.02210
 Al -0.01601 1.99050 2.01747
 Al 2.05058 0.00955 1.99216
 Al 0.01558 -0.02779 4.02021
 Al 2.01124 1.98867 4.07261
 Al -0.00662 2.06031 6.10934
 Al 2.01199 0.01688 6.10181
 Al -0.02312 4.06138 -0.03986
 Al 2.01037 6.08854 0.03463
 Al 0.01499 6.05220 2.00272
 Al 1.98294 4.01460 1.98638
 Al 0.00218 4.03534 4.07792
 Al 2.05030 6.08386 4.05289
 Al 0.01360 6.06594 6.09106
 Al 2.06147 4.06694 6.10216
 Al 4.06621 0.01176 -0.02552
 Al 6.07513 1.98407 0.03752
 Al 4.04802 2.03000 2.04393
 Al 6.10027 -0.00480 1.99780
 Al 4.08267 0.01933 4.03501
 Al 6.09555 2.04498 4.05253
 Al 4.01352 2.04240 6.04670
 Al 6.09607 0.01249 6.06102
 Al 4.06808 4.06083 -0.01070
 Al 6.07514 6.02975 0.03720
 Al 4.01006 6.09475 1.99543
 Al 6.09737 4.07101 2.02135
 Al 4.05486 4.06801 4.05458
 Al 6.09646 6.06186 4.04527
 Al 4.06025 6.09054 6.05885
 Al 6.06564 4.05091 6.09408
K_POINTS automatic
 7 7 7  0 0 0
