 &control
    calculation = 'scf'
    pseudo_dir = '/n/home03/jonpvandermause/qe-6.2.1/pseudo'
    outdir = './output'
    tstress = .true.
    tprnfor = .true.
 /
 &system
    ibrav= 0
    nat= 32
    ntyp= 1
    ecutwfc =29
    ecutrho = 143
    occupations = 'smearing'
    smearing = 'mp'
    degauss = 0.01
 /
 &electrons
    conv_thr =  1.0d-10
    mixing_beta = 0.7
    electron_maxstep = 100
 /
ATOMIC_SPECIES
 Al  27  Al.pbe-n-kjpaw_psl.1.0.0.UPF
CELL_PARAMETERS {angstrom}
 8.09200 0.00000 0.00000
 0.00000 8.09200 0.00000
 0.00000 0.00000 8.09200
ATOMIC_POSITIONS {angstrom}
 Al -0.03597 0.02511 -0.00471
 Al 2.00038 2.03531 -0.00310
 Al 0.03769 2.06084 2.01587
 Al 2.05809 -0.01360 1.98891
 Al -0.00895 0.02647 4.02178
 Al 2.00112 2.00022 4.08035
 Al 0.02792 2.03303 6.09047
 Al 2.00750 -0.03713 6.10305
 Al -0.01530 4.04174 0.01851
 Al 1.99860 6.04905 -0.02899
 Al -0.03324 6.06295 2.06346
 Al 1.98448 4.02963 2.04490
 Al 0.01976 4.03213 4.01785
 Al 2.04447 6.03533 4.07756
 Al -0.01997 6.04835 6.03474
 Al 2.03084 4.01029 6.10430
 Al 4.04813 -0.01844 0.00836
 Al 6.05380 2.04404 0.03433
 Al 4.06138 2.02362 2.05490
 Al 6.09323 -0.00615 1.98953
 Al 4.02339 0.01592 4.02626
 Al 6.04796 2.02974 4.04078
 Al 4.08455 2.01869 6.05859
 Al 6.10481 -0.00145 6.07510
 Al 4.08633 4.07087 0.03190
 Al 6.10371 6.07020 -0.02534
 Al 4.07224 6.02978 2.03906
 Al 6.08614 4.06131 2.06061
 Al 4.02880 4.04415 4.03792
 Al 6.05340 6.07479 4.08325
 Al 4.03364 6.06733 6.05241
 Al 6.05639 4.03995 6.08380
K_POINTS automatic
 7 7 7  0 0 0
