 &control
    calculation = 'scf'
    pseudo_dir = '/n/home03/jonpvandermause/qe-6.2.1/pseudo'
    outdir = './output'
    tstress = .true.
    tprnfor = .true.
 /
 &system
    ibrav= 0
    nat= 32
    ntyp= 1
    ecutwfc =29
    ecutrho = 143
    occupations = 'smearing'
    smearing = 'mp'
    degauss = 0.01
 /
 &electrons
    conv_thr =  1.0d-10
    mixing_beta = 0.7
    electron_maxstep = 100
 /
ATOMIC_SPECIES
 Al  27  Al.pbe-n-kjpaw_psl.1.0.0.UPF
CELL_PARAMETERS {angstrom}
 8.09200 0.00000 0.00000
 0.00000 8.09200 0.00000
 0.00000 0.00000 8.09200
ATOMIC_POSITIONS {angstrom}
 Al -0.01054 0.03848 0.01248
 Al 2.04264 1.98616 -0.00667
 Al 0.00314 2.01448 2.04610
 Al 2.05552 -0.02989 2.05418
 Al -0.03777 -0.01301 4.03219
 Al 2.03503 2.01249 4.02968
 Al -0.03184 1.99562 6.04663
 Al 2.00036 -0.01266 6.03321
 Al 0.03183 4.07110 -0.03294
 Al 2.01295 6.10360 0.00681
 Al 0.00520 6.10177 2.03736
 Al 2.00620 4.01148 1.99203
 Al 0.02399 4.02204 4.01668
 Al 2.01904 6.04837 4.04424
 Al 0.03047 6.10802 6.04062
 Al 2.01975 4.06989 6.10686
 Al 4.02233 -0.02681 0.03324
 Al 6.06737 2.02325 0.00188
 Al 4.05115 1.98826 2.03084
 Al 6.07511 -0.02876 2.05414
 Al 4.01716 -0.03223 4.07104
 Al 6.09344 1.99624 4.02272
 Al 4.01823 1.98893 6.06489
 Al 6.07421 -0.02523 6.05975
 Al 4.01482 4.02893 0.00562
 Al 6.07429 6.10536 -0.03288
 Al 4.06269 6.05126 1.99636
 Al 6.07936 4.01029 2.00662
 Al 4.02465 4.08632 4.08413
 Al 6.09882 6.08599 4.02351
 Al 4.07360 6.03971 6.05074
 Al 6.10308 4.02646 6.04104
K_POINTS automatic
 7 7 7  0 0 0
