 &control
    calculation = 'scf'
    pseudo_dir = '/n/home03/jonpvandermause/qe-6.2.1/pseudo'
    outdir = './output'
    tstress = .true.
    tprnfor = .true.
 /
 &system
    ibrav= 0
    nat= 32
    ntyp= 1
    ecutwfc =29
    ecutrho = 143
    occupations = 'smearing'
    smearing = 'mp'
    degauss = 0.01
 /
 &electrons
    conv_thr =  1.0d-10
    mixing_beta = 0.7
    electron_maxstep = 100
 /
ATOMIC_SPECIES
 Al  27  Al.pbe-n-kjpaw_psl.1.0.0.UPF
CELL_PARAMETERS {angstrom}
 8.09200 0.00000 0.00000
 0.00000 8.09200 0.00000
 0.00000 0.00000 8.09200
ATOMIC_POSITIONS {angstrom}
 Al 0.01428 -0.02480 -0.03567
 Al 2.05205 2.00478 0.02103
 Al -0.00985 2.06240 2.00395
 Al 2.05161 -0.02726 2.04865
 Al 0.01981 0.01099 4.02504
 Al 2.00768 1.99973 4.05273
 Al -0.02769 2.03720 6.07583
 Al 2.04115 -0.02130 6.09224
 Al -0.02703 4.00729 -0.04042
 Al 2.01324 6.10571 -0.04043
 Al -0.01943 6.09774 1.98317
 Al 2.01444 4.04130 2.02390
 Al 0.03408 4.03210 4.04628
 Al 2.05225 6.06219 4.04456
 Al -0.03653 6.10522 6.03417
 Al 2.05558 4.01474 6.03563
 Al 4.08527 0.01083 0.03939
 Al 6.10875 2.05328 0.02047
 Al 4.00960 1.98891 2.01853
 Al 6.09918 -0.03054 2.04512
 Al 4.06129 0.02398 4.03594
 Al 6.05451 2.03511 4.03742
 Al 4.05242 1.99628 6.05382
 Al 6.07056 0.02473 6.07756
 Al 4.07975 4.02327 0.00893
 Al 6.10790 6.07280 -0.00065
 Al 4.07699 6.09444 2.01456
 Al 6.06578 4.01825 2.05863
 Al 4.06716 4.08160 4.07428
 Al 6.04168 6.05257 4.03172
 Al 4.05385 6.06689 6.07779
 Al 6.10632 4.04390 6.04668
K_POINTS automatic
 7 7 7  0 0 0
