 &control
    calculation = 'scf'
    pseudo_dir = '/n/home03/jonpvandermause/qe-6.2.1/pseudo'
    outdir = './output'
    tstress = .true.
    tprnfor = .true.
 /
 &system
    ibrav= 0
    nat= 31
    ntyp= 1
    ecutwfc =29
    ecutrho = 143
    occupations = 'smearing'
    smearing = 'mp'
    degauss = 0.01
 /
 &electrons
    conv_thr =  1.0d-10
    mixing_beta = 0.7
    electron_maxstep = 100
 /
ATOMIC_SPECIES
 Al  27  Al.pbe-n-kjpaw_psl.1.0.0.UPF
CELL_PARAMETERS {angstrom}
 8.09200 0.00000 0.00000
 0.00000 8.09200 0.00000
 0.00000 0.00000 8.09200
ATOMIC_POSITIONS {angstrom}
 Al 2.02300 2.02300 0.00000
 Al 0.00000 2.02300 2.02300
 Al 2.02300 0.00000 2.02300
 Al 0.00000 0.00000 4.04600
 Al 2.02300 2.02300 4.04600
 Al 0.00000 2.02300 6.06900
 Al 2.02300 0.00000 6.06900
 Al 0.00000 4.04600 0.00000
 Al 2.02300 6.06900 0.00000
 Al 0.00000 6.06900 2.02300
 Al 2.02300 4.04600 2.02300
 Al 0.00000 4.04600 4.04600
 Al 2.02300 6.06900 4.04600
 Al 0.00000 6.06900 6.06900
 Al 2.02300 4.04600 6.06900
 Al 4.04600 0.00000 0.00000
 Al 6.06900 2.02300 0.00000
 Al 4.04600 2.02300 2.02300
 Al 6.06900 0.00000 2.02300
 Al 4.04600 0.00000 4.04600
 Al 6.06900 2.02300 4.04600
 Al 4.04600 2.02300 6.06900
 Al 6.06900 0.00000 6.06900
 Al 4.04600 4.04600 0.00000
 Al 6.06900 6.06900 0.00000
 Al 4.04600 6.06900 2.02300
 Al 6.06900 4.04600 2.02300
 Al 4.04600 4.04600 4.04600
 Al 6.06900 6.06900 4.04600
 Al 4.04600 6.06900 6.06900
 Al 6.06900 4.04600 6.06900
K_POINTS automatic
 2 2 2  0 0 0
