 &control
    calculation = 'scf'
    pseudo_dir = '/n/holylfs/LABS/kozinsky_lab/Software/qe-6.2.1/pseudo'
    outdir = './output'
    tstress = .true.
    tprnfor = .true.
 /
 &system
    ibrav= 0
    nat= 2
    ntyp= 1
    ecutwfc =80
    ecutrho = 640
 /
 &electrons
    conv_thr =  1.0d-10
    mixing_beta = 0.7
 /
ATOMIC_SPECIES
 C  12  C.pz-rrkjus.UPF
CELL_PARAMETERS {angstrom}
 0.00000 1.76300 1.76300
 1.76300 0.00000 1.76300
 1.76300 1.76300 0.00000
ATOMIC_POSITIONS {angstrom}
 C 0.00000 0.00000 0.00000
 C 0.88150 0.88150 0.88150
K_POINTS automatic
 30 30 30  0 0 0
