 &control
    calculation = 'scf'
    pseudo_dir = '/n/home03/jonpvandermause/qe-6.2.1/pseudo'
    outdir = './output'
    tstress = .true.
    tprnfor = .true.
 /
 &system
    ibrav= 0
nat = 31
    ntyp= 1
    ecutwfc =29
    ecutrho = 143
    occupations = 'smearing'
    smearing = 'mp'
    degauss = 0.01
    nosym = .true.
 /
 &electrons
    conv_thr =  1.0d-6
    mixing_beta = 0.7
    electron_maxstep = 100
 /
ATOMIC_SPECIES
 Al  27  Al.pbe-n-kjpaw_psl.1.0.0.UPF
CELL_PARAMETERS {angstrom}
8.092 0.0 0.0
0.0 8.092 0.0
0.0 0.0 8.092
ATOMIC_POSITIONS {angstrom}
Al 2.102206149 2.17737915 0.109113599
Al 1.922396715 0.038536746 2.074840004
Al 0.073386116 1.975432502 1.901271409
Al -0.007303925 0.139900532 4.307704064
Al 2.069632936 1.852826914 3.86282843
Al 2.075024249 0.113072629 6.20623834
Al -0.068653084 1.487145808 6.638712514
Al 0.063273928 3.911893797 -0.416121315
Al 2.056071752 6.34728195 0.121497549
Al 2.068411307 4.204145825 2.141313766
Al 0.081816322 5.959837862 2.191802095
Al 0.075735297 3.631231037 4.02144364
Al 2.195934539 6.144239286 3.991566492
Al 2.075014198 4.22107171 5.89509062
Al 0.109670676 5.9184785 5.844710297
Al 3.987337907 0.248900919 0.108194742
Al 5.963879511 2.258413097 -0.099035367
Al 6.243706383 -0.171238539 2.027436286
Al 4.017468043 2.062071886 2.106652704
Al 4.008519381 -0.05695792 4.064978736
Al 6.045208457 1.665292497 3.773710901
Al 5.802641633 -0.030351203 5.995212259
Al 3.956509066 2.256351057 5.972951813
Al 3.896509121 4.203498367 -0.02496773
Al 6.044676144 6.287042881 -0.045843135
Al 6.101536821 3.974699953 1.985909757
Al 4.201125196 6.009072615 2.147580718
Al 4.10209373 4.068057955 4.01880044
Al 6.102661233 5.770182894 4.136778889
Al 5.91466668 4.215698177 6.118523223
Al 3.82284352 6.220791115 5.925104262
K_POINTS automatic
 2 2 2  0 0 0
