 &control
    calculation = 'scf'
    pseudo_dir = '/n/home03/jonpvandermause/qe-6.2.1/pseudo'
    outdir = './output'
    tstress = .true.
    tprnfor = .true.
 /
 &system
    ibrav= 0
    nat= 37
    ntyp= 1
    ecutwfc =45
    ecutrho = 181
    occupations = 'smearing'
    smearing = 'mp'
    degauss = 0.01
 /
 &electrons
    conv_thr =  1.0d-10
    mixing_beta = 0.7
    electron_maxstep = 100
 /
ATOMIC_SPECIES
 Ag  108  Ag.pbe-n-kjpaw_psl.1.0.0.UPF
CELL_PARAMETERS {angstrom}
 8.67620 0.00000 0.00000
 4.33810 7.51381 0.00000
 0.00000 0.00000 17.08409
ATOMIC_POSITIONS {angstrom}
 Ag 0.00000 0.00000 5.00000
 Ag 2.89207 0.00000 5.00000
 Ag 5.78413 0.00000 5.00000
 Ag 1.44603 2.50460 5.00000
 Ag 4.33810 2.50460 5.00000
 Ag 7.23017 2.50460 5.00000
 Ag 2.89207 5.00921 5.00000
 Ag 5.78413 5.00921 5.00000
 Ag 8.67620 5.00921 5.00000
 Ag 1.44603 0.83487 7.36136
 Ag 4.33810 0.83487 7.36136
 Ag 7.23017 0.83487 7.36136
 Ag 2.89207 3.33947 7.36136
 Ag 5.78413 3.33947 7.36136
 Ag 8.67620 3.33947 7.36136
 Ag 4.33810 5.84407 7.36136
 Ag 7.23017 5.84407 7.36136
 Ag 10.12223 5.84407 7.36136
 Ag 0.00000 1.66974 9.72273
 Ag 2.89207 1.66974 9.72273
 Ag 5.78413 1.66974 9.72273
 Ag 1.44603 4.17434 9.72273
 Ag 4.33810 4.17434 9.72273
 Ag 7.23017 4.17434 9.72273
 Ag 2.89207 6.67894 9.72273
 Ag 5.78413 6.67894 9.72273
 Ag 8.67620 6.67894 9.72273
 Ag 0.00000 0.00000 12.08409
 Ag 2.89207 0.00000 12.08409
 Ag 5.78413 0.00000 12.08409
 Ag 1.44603 2.50460 12.08409
 Ag 4.33810 2.50460 12.08409
 Ag 7.23017 2.50460 12.08409
 Ag 2.89207 5.00921 12.08409
 Ag 5.78413 5.00921 12.08409
 Ag 8.67620 5.00921 12.08409
 Ag 2.89207 1.66974 14.12909
K_POINTS automatic
 4 4 2  0 0 0
